152
	Energy:     336.5037689
C         -2.06500        6.83337        0.60551
C         -2.50719        6.14372        1.75233
C         -2.90509        4.80528        1.67319
C         -2.85219        4.11802        0.45209
C         -2.38689        4.78680       -0.68720
C         -1.99307        6.12376       -0.60921
H         -1.60285        6.58579       -1.50548
H         -2.32021        4.27339       -1.63855
H         -2.56826        6.64532        2.70925
H         -3.25753        4.30397        2.56618
C         -3.28637        2.68113        0.36716
Cl        -2.27018        1.65637        1.41325
H         -3.20505        2.29592       -0.67193
H         -4.34690        2.59416        0.68409
C         -1.46518       10.56457       -0.10435
C         -0.62915       10.90454        0.96133
C         -1.97794        9.26657       -0.26063
C         -0.34918        9.95062        1.95088
C         -1.63740        8.26596        0.70012
H         -1.70646       11.32406       -0.84155
C         -0.85952        8.64987        1.81347
H         -0.60197        7.91723        2.56977
C         -2.92787        9.07128       -1.42928
C         -4.30503        9.56487       -1.06369
H         -3.09601        8.03318       -1.73658
H         -2.51144        9.58694       -2.32307
C         -5.03871        8.88642       -0.08743
C         -6.33166        9.28371        0.23086
C         -6.95039       10.37149       -0.41855
C         -6.18867       11.09597       -1.39053
C         -4.87641       10.67128       -1.69499
H         -4.61758        8.02759        0.41803
H         -6.86148        8.70512        0.97710
H         -4.29466       11.21144       -2.43349
C         -8.35837       10.68675       -0.01453
C         -9.35180       11.01145       -0.95752
C        -10.66653       11.26563       -0.55366
C        -11.02123       11.19869        0.80141
C         -8.73159       10.60744        1.34413
C        -10.04232       10.86952        1.74728
H         -9.13197       11.03471       -2.01537
H        -11.41269       11.50588       -1.30085
H         -8.00411       10.35758        2.10602
H        -10.29123       10.80904        2.79976
C        -12.43597       11.47093        1.23144
Cl       -13.54862       10.28327        0.50339
H        -12.73144       12.49391        0.91778
H        -12.54180       11.40352        2.33544
C          0.50707       10.26737        3.15179
C          1.12465       11.64339        3.15358
H          1.34435        9.53528        3.16818
H         -0.10011       10.13303        4.07303
C         -0.04623       12.29028        0.98276
C          0.89248       12.57074        2.12287
H         -0.86744       13.03977        0.99926
H          0.52816       12.41330        0.03781
C          1.98790       11.99078        4.20247
C          2.65659       13.21884        4.20654
C          1.57963       13.79451        2.12358
C          2.49114       14.13114        3.14539
H          1.40150       14.47058        1.29862
H          2.17340       11.28920        5.00745
H          3.34890       13.41144        5.01323
C          3.33426       15.37231        3.05982
C          3.63751       15.91742        1.79464
C          4.53284       16.97378        1.66414
C          5.13191       17.55144        2.78978
C          4.80637       17.05796        4.06220
H          3.24715       15.49531        0.88113
H          4.78065       17.32373        0.66922
C          3.92847       15.96904        4.19544
H          5.27302       17.47757        4.94485
H          3.73603       15.59133        5.19004
C         -6.63992       12.36654       -2.08612
C         -5.92539       13.53272       -1.45286
H         -7.70773       12.60980       -1.98909
H         -6.42778       12.27155       -3.17362
C         -6.27273       13.89853       -0.14712
C         -5.65717       14.97834        0.47582
C         -4.93301       14.25922       -2.12458
C         -4.28956       15.33183       -1.48828
C         -4.65026       15.71851       -0.17678
H         -7.03695       13.34982        0.39033
H         -5.97157       15.20380        1.48320
H         -4.65026       13.99121       -3.13476
H         -3.53273       15.86746       -2.04307
C         -4.00480       16.88365        0.52094
C         -2.76970       17.34059        0.18656
C         -2.14601       18.49407        0.90737
C         -4.73724       17.58389        1.61981
C         -4.19670       18.63107        2.24667
C         -2.84566       19.11339        1.88712
H         -2.19103       16.86362       -0.59597
H         -4.75859       19.13075        3.03118
C         -0.74449       18.92173        0.51407
C         -2.32771       20.29131        2.65750
C         -0.94899       20.73719        2.28028
H         -2.32446       20.02777        3.73763
H         -3.02881       21.13985        2.49871
C         -0.19140       20.09640        1.28956
H         -0.75273       19.18808       -0.56463
H         -0.06557       18.05428        0.66181
C          1.10110       20.57417        0.99794
C         -0.42722       21.84244        2.94931
C          0.85766       22.32285        2.67935
C          1.65358       21.67544        1.68867
H          1.67390       20.09158        0.21449
H         -1.03507       22.33612        3.70074
C          1.27635       23.53352        3.42542
C          2.40997       23.52947        4.24152
C          0.49992       24.70092        3.34655
C          0.88212       25.85486        4.03394
C          2.03743       25.86359        4.83060
C          2.79504       24.68055        4.93592
H          3.68267       24.62843        5.54982
H          2.98562       22.62436        4.35935
H         -0.39286       24.72453        2.73321
H          0.27548       26.74769        3.94132
C          2.40074       27.14816        5.54006
C          6.20319       18.59986        2.59553
C          5.78501       20.05166        2.74452
H          6.56384       18.52203        1.54644
H          7.04618       18.28669        3.22933
C          6.50435       21.02240        3.51953
C          6.04117       22.35422        3.50627
C          4.93590       22.73514        2.75772
C          4.63528       20.46166        2.02824
C          4.20159       21.79354        2.03669
H          4.08285       19.74425        1.43485
H          6.56592       23.13422        4.04318
H          4.64588       23.77820        2.75380
C          2.99883       22.22717        1.22913
H          3.19250       21.92552        0.17642
H          2.91144       23.33462        1.19060
C          7.76470       20.76850        4.30114
C          7.95390       21.41309        5.54383
C          9.12000       21.22203        6.28755
C         10.13877       20.39068        5.80754
C          9.97607       19.76046        4.56616
C          8.80715       19.94934        3.82069
H          7.19020       22.05972        5.95679
H          9.22906       21.72646        7.24012
H         10.75915       19.12817        4.16643
H          8.75024       19.47542        2.85202
C         11.39570       20.19719        6.61023
H         -5.73465       17.28777        1.91930
Cl         3.88773       27.07638        6.53060
H          2.54291       27.94839        4.78280
H          1.56380       27.44313        6.20737
Cl        11.02321       19.45802        8.18952
H         11.88707       21.17964        6.77372
H         12.11417       19.53484        6.08239
