  58
       -111.21979546
 C         -4.3713203821        0.5021039125       -0.7875794852
 C         -4.0738187617       -0.2559469567        0.2595889558
 H         -5.0982347110        1.2938051995       -0.7171038228
 H         -3.8747800279        0.3846119136       -1.7347781766
 C         -3.0819792471       -1.3237053846        0.2606856113
 H         -4.5503833984       -0.0705208978        1.2146301056
 C         -2.6744269206       -1.9660453712       -0.9077613992
 C         -1.7032743740       -2.9458381715       -0.8721517324
 C         -1.1110302161       -3.3228122665        0.3287054258
 C         -2.5218429641       -1.7371311343        1.4682829251
 C         -1.5492259819       -2.7155939410        1.5006227013
 H         -2.8440268483       -1.2739385728        2.3890414991
 H         -1.1396610284       -3.0263997827        2.4524516846
 H         -1.4206685826       -3.4419176596       -1.7903847808
 H         -3.1260105515       -1.7027879946       -1.8495448539
 C         -0.0101361447       -4.3506220359        0.3673353250
 N          1.3409543680       -3.8265606463        0.1652282711
 H         -0.1620574769       -5.1057218123       -0.4068178164
 H         -0.0027580424       -4.8541079863        1.3384356249
 C          1.7460828801       -2.7597988912        1.0600267184
 C          1.6519140781       -3.3970724986       -1.1945792457
 C          2.7734070672       -2.3903276520       -0.9930807239
 H          0.8068331271       -2.8911109411       -1.6771763593
 H          1.9565163263       -4.2601862931       -1.7902602051
 N          2.3069583395       -1.6807414924        0.2111362132
 H          2.8714955310       -1.7056904437       -1.8311787845
 H          3.7232933689       -2.8823488866       -0.7705577338
 H          2.5456145299       -3.1284841390        1.7198777107
 H          0.9260757807       -2.3506585860        1.6575360919
 C          3.2927107886       -0.8392679038        0.9066354396
 C          3.8188241088        0.2879879963        0.0264183014
 H          4.1135550140       -1.4806201685        1.2459910195
 H          2.7818587750       -0.4100001528        1.7694625003
 C          4.7442856787        1.2280770373        0.8034822823
 H          2.9730679800        0.8644354265       -0.3476861495
 H          4.3674694256       -0.1239395672       -0.8225176235
 C          4.0181093366        1.9839114822        1.9110029690
 H          5.1518390973        1.9495102915        0.0944647001
 H          5.5825627385        0.6635926676        1.2207474702
 H          3.8140430316        1.3424991414        2.7646904886
 H          3.0734533615        2.3683485519        1.5358642414
 H          4.6244058635        2.8170167141        2.2569324440
 H          1.5162879145       -1.0706660724       -0.1024028929
 O          0.5425330592       -0.4239174114       -1.3782853210
 F         -0.2894014830        2.2080715745        3.2205757577
 O         -1.4949459472        0.0958212411       -2.6278295769
 S         -0.5721558314        0.4758287366       -1.6167819734
 O          0.9903545209        1.8390556352        0.4864700964
 F          1.6050084439        1.9520077655       -2.1916043355
 C         -1.0726705854        1.9769301993        2.1616649464
 C          0.2783025047        2.0249503952       -2.3092366024
 F         -1.4895787298        3.1476005896        1.6979933830
 S         -0.1285490461        1.0259458686        0.8549020061
 F         -2.1317212247        1.2964301150        2.5897622626
 N         -1.2300679315        0.9372865713       -0.2709462302
 F         -0.1436774274        3.1340892911       -1.7118057375
 F          0.0151161313        2.1472228827       -3.6134361009
 O          0.2222746697       -0.2239471644        1.4764017691
