324
energy: -486.900111442603 gnorm: 0.000262057125 xtb: 6.7.1 (edcfbbe)
C         -3.13242        9.14631        1.85359
C         -4.46287        9.32127        2.22570
C         -5.24353        8.24119        2.58116
C         -4.71202        6.95427        2.58042
C         -3.37180        6.78172        2.24265
C         -2.59344        7.86218        1.88145
H         -1.55224        7.71713        1.62906
H         -2.94231        5.78974        2.26364
H         -4.88723       10.31462        2.21502
H         -6.27825        8.39056        2.85418
C         -5.54881        5.78728        2.97245
Cl        -5.36066        5.45499        4.74166
H         -5.24290        4.87079        2.46937
H         -6.61075        5.97229        2.81768
C         -1.20545       11.61527       -0.22062
C         -0.97132       12.62849        0.69634
C         -1.88467       10.45729        0.12368
C         -1.38985       12.47179        2.01289
C         -2.33083       10.31339        1.44046
H         -0.86893       11.74671       -1.24082
C         -2.06199       11.31304        2.36789
H         -2.40331       11.18192        3.38620
C         -2.28037        9.46731       -0.94474
C         -3.74906        9.67873       -1.20877
H         -2.10462        8.44042       -0.62488
H         -1.69872        9.65606       -1.85036
C         -4.70374        8.70702       -0.93625
C         -6.04553        9.00787       -1.04195
C         -6.48432       10.29074       -1.38051
C         -5.52584       11.25755       -1.70953
C         -4.18286       10.92454       -1.63769
H         -4.39725        7.72064       -0.61754
H         -6.78202        8.25357       -0.80297
H         -3.44926       11.68155       -1.87856
C         -7.92502       10.56943       -1.35612
C         -8.81631        9.74300       -2.04685
C        -10.17171        9.98340       -2.01874
C        -10.69086       11.05599       -1.29136
C         -8.45033       11.62788       -0.60722
C         -9.80718       11.86296       -0.57290
H         -8.42644        8.91678       -2.62443
H        -10.84644        9.33940       -2.56545
H         -7.78471       12.25006       -0.02605
H        -10.19642       12.67999        0.01845
C        -12.15341       11.30010       -1.24354
Cl       -12.91929       10.30397        0.07517
H        -12.65791       10.99315       -2.15844
H        -12.39530       12.33296       -0.99859
C         -1.14017       13.56628        3.01250
C          0.09097       14.36312        2.69635
H         -1.07801       13.14953        4.02092
H         -1.98947       14.26231        3.00245
C         -0.33275       13.91575        0.27171
C          0.47287       14.54328        1.37036
H         -1.13573       14.61075       -0.00330
H          0.28580       13.76434       -0.61619
C          0.83706       14.96453        3.70024
C          1.91707       15.77020        3.39820
C          1.56885       15.33253        1.07407
C          2.29257       15.98088        2.07289
H          1.83980       15.48294        0.03796
H          0.55621       14.81211        4.73346
H          2.48422       16.22961        4.19496
C          3.35492       16.92547        1.70712
C          4.17816       16.69986        0.60461
C          5.07770       17.65922        0.18546
C          5.18973       18.87468        0.84970
C          4.40973       19.07914        1.98209
H          4.11196       15.76208        0.07194
H          5.69463       17.46881       -0.68241
C          3.50850       18.12376        2.40294
H          4.48200       20.01210        2.52220
H          2.88689       18.33016        3.26138
C         -5.86822       12.66327       -2.12793
C         -5.19887       13.68586       -1.24289
H         -6.95008       12.81578       -2.12509
H         -5.52538       12.81999       -3.15656
C         -4.81184       13.37410        0.05443
C         -4.12725       14.28644        0.83055
C         -4.91863       14.96176       -1.71934
C         -4.24599       15.88314       -0.93927
C         -3.82327       15.55809        0.34801
H         -5.01692       12.39248        0.45549
H         -3.79389       13.98545        1.81161
H         -5.22144       15.23334       -2.72186
H         -4.04063       16.87012       -1.33098
C         -3.01175       16.50014        1.14028
C         -1.90518       17.08999        0.53061
C         -1.02975       17.90301        1.22591
C         -3.27765       16.79975        2.48072
C         -2.38958       17.61229        3.17344
C         -1.25770       18.14098        2.57855
H         -1.71722       16.89007       -0.51627
H         -2.59509       17.84083        4.21062
C         -4.57215       16.42045        3.15949
C         -5.46080       17.63401        3.08226
H         -4.39020       16.15159        4.20186
H         -5.05712       15.58574        2.65578
C         -5.72106       18.42809        4.18847
C         -6.45772       19.58767        4.04907
C         -6.94933       19.99331        2.81020
C         -6.68870       19.19596        1.68646
C         -5.95843       18.03177        1.84702
H         -5.34371       18.14381        5.16098
H         -6.66223       20.20226        4.91481
H         -5.74307       17.42124        0.98081
C         -7.66619       21.27655        2.73537
C         -8.96734       21.38029        2.24711
C         -9.60624       22.60176        2.19581
C         -8.97062       23.75744        2.64214
C         -7.67675       23.65347        3.14895
C         -7.03987       22.43407        3.20161
H         -9.48355       20.49058        1.91684
H         -6.03204       22.36581        3.58534
H         -7.17370       24.54478        3.49591
H        -10.61415       22.66583        1.80979
C         -9.63900       25.08385        2.56171
Cl        -9.03072       26.00955        1.12530
H         -9.41305       25.71188        3.42285
H        -10.71574       24.99669        2.42616
C         -7.09193       19.62472        0.29690
C         -6.71514       21.06020        0.05157
H         -8.16816       19.49979        0.15291
H         -6.58850       18.97707       -0.42752
C         -5.46021       21.52196        0.43164
C         -5.15796       22.86621        0.36735
C         -6.09527       23.78225       -0.10421
C         -7.61784       21.96044       -0.49684
C         -7.31161       23.30389       -0.58032
H         -4.73254       20.82388        0.82237
H         -4.18855       23.21531        0.69349
H         -8.58708       21.61273       -0.82696
H         -8.04386       23.99993       -0.96222
C         -5.86067       25.22776       -0.00729
C         -5.35529       25.75111        1.17914
C         -5.24310       27.11603        1.36772
C         -6.20655       26.10504       -1.02973
C         -6.06071       27.46856       -0.85915
C         -5.60043       27.98708        0.34173
H         -5.09030       25.07592        1.98072
H         -6.58454       25.71491       -1.96372
H         -6.32920       28.14196       -1.66177
C         -4.78085       27.68608        2.67859
C         -3.97307       28.93438        2.47702
C         -4.32793       29.80637        1.45041
C         -5.50510       29.46653        0.58149
H         -6.41941       29.79005        1.09785
H         -5.45639       30.00958       -0.36468
H         -4.21237       26.94376        3.24275
H         -5.66931       27.94205        3.27260
C         -2.90852       29.25671        3.30178
C         -3.60980       30.97440        1.28127
C         -2.57265       31.32881        2.14313
C         -2.21300       30.45019        3.17088
H         -2.62298       28.56771        4.08557
H         -3.88037       31.65804        0.48758
C         -1.91646       32.62817        1.92248
C         -1.31145       32.90309        0.69403
C         -0.70147       34.11644        0.46134
C         -1.92189       33.62871        2.89728
C         -1.31652       34.84449        2.66279
C         -0.69348       35.10835        1.44311
H         -1.30805       32.13938       -0.07107
H         -0.22137       34.30624       -0.48840
H         -2.43069       33.45461        3.83515
H         -1.32756       35.60809        3.42804
C         -0.00536       36.40250        1.20723
Cl         1.73393       36.29038        1.72899
H         -0.43016       37.21380        1.79630
H          0.02812       36.67024        0.15232
C         -1.07934       30.73079        4.12525
C          0.16798       18.51709        0.56153
C         -0.26642       18.95968        3.35287
C          0.31408       20.06512        2.51661
H          0.54700       18.28939        3.66080
H         -0.72220       19.36238        4.26006
C          0.52221       19.84789        1.15851
H          0.00061       18.61187       -0.51399
H          1.02358       17.84634        0.70158
C          1.09295       20.85019        0.39069
C          0.66180       21.28904        3.06600
C          1.24094       22.29144        2.29807
C          1.47292       22.06608        0.93938
H          1.25555       20.67219       -0.66428
H          0.48847       21.47320        4.11806
C          1.58866       23.58484        2.92623
C          2.64154       23.69114        3.82691
C          0.85553       24.72750        2.62586
C          1.16753       25.94349        3.20505
C          2.22685       26.05483        4.09711
C          2.95770       24.91049        4.39815
H          3.78864       24.97655        5.08732
H          3.22509       22.81385        4.06721
H          0.02449       24.65888        1.93732
H          0.58115       26.81544        2.95433
C          2.56700       27.36919        4.76761
C          0.78869       29.04500        4.31987
C          0.91749       30.68222        2.59809
C          0.22263       30.12684        3.66573
H         -1.33474       30.32537        5.10716
H         -0.93050       31.80640        4.22378
C          2.05311       28.55772        4.00378
C          2.79175       29.19408        3.00016
C          2.17627       30.22248        2.28103
H          0.48644       31.50151        2.04307
H          2.71174       30.67861        1.46079
H          0.24530       28.57656        5.13056
H          3.64859       27.43834        4.90371
H          2.11072       27.36196        5.76387
C          4.22599       28.95876        2.75606
C          4.83724       27.71055        2.67833
C          6.21175       27.60840        2.53743
C          7.00677       28.73826        2.42200
C          6.39526       29.98953        2.42804
C          5.03279       30.08996        2.62452
H          4.24085       26.81188        2.71504
H          6.67144       26.63020        2.50949
H          4.58360       31.07068        2.69126
C          6.11389       19.94809        0.33510
C          5.58106       21.32147        0.64477
H          6.20949       19.83839       -0.75009
H          7.11083       19.81527        0.76249
C          6.29699       22.27380        1.37297
C          5.72431       23.52443        1.58727
C          4.44339       23.81270        1.15641
C          4.30634       21.63507        0.19832
C          3.70805       22.85461        0.47271
H          3.75190       20.88453       -0.34709
H          6.28489       24.26532        2.13915
H          4.00920       24.78014        1.36204
C          2.25719       23.05723        0.11501
H          2.09859       22.86129       -0.94773
H          1.95766       24.08216        0.33365
C          7.63624       21.97903        1.91743
C          7.82688       20.92637        2.81071
C          9.08780       20.62632        3.28484
C         10.19308       21.36510        2.87898
C          9.99906       22.43299        2.01413
C          8.73625       22.74008        1.54090
H          6.97743       20.34319        3.13668
H          9.22423       19.80252        3.97111
H         10.84626       23.02355        1.69292
H          8.59989       23.56330        0.85333
C         11.55621       21.02303        3.41823
C         11.64611       21.53240        4.83593
H         12.32824       21.49632        2.80731
H         11.69516       19.94261        3.38763
C         11.71804       22.90464        5.03507
C         11.71407       23.45394        6.30235
C         11.63334       22.61551        7.41452
C         11.55431       21.25059        7.22595
C         11.56431       20.69091        5.94772
C         11.49620       19.22487        5.83124
H         11.50304       20.59059        8.08155
H         11.77301       23.55744        4.17478
C         12.51622       18.49672        5.21578
C         12.44951       17.12223        5.13435
C         11.36257       16.42908        5.66562
C         10.34384       17.15415        6.28188
C         10.41561       18.52827        6.37255
H         13.37573       19.01986        4.82085
H         13.24724       16.57088        4.65674
H          9.49175       16.63020        6.69146
H          9.62046       19.08180        6.85186
C         11.27718       14.94990        5.54443
Cl        10.52541       14.49737        3.95534
H         10.63722       14.50808        6.30661
H         12.25796       14.47649        5.54616
C         11.67284       23.25499        8.77490
C         12.72581       24.32753        8.77832
H         11.86362       22.51350        9.55244
H         10.69541       23.71302        8.97727
C         12.81075       25.15843        7.65999
C         11.82771       24.92957        6.54672
H         12.12826       25.45855        5.64115
H         10.84788       25.31696        6.85453
C         13.62976       24.50330        9.81521
C         14.60059       25.48268        9.74593
C         14.71028       26.31054        8.62403
C         13.79352       26.12095        7.58317
H         13.86817       26.72056        6.68757
H         15.27443       25.61854       10.57886
H         13.57045       23.86761       10.68861
C         15.74986       27.32666        8.50984
C         16.99683       27.18875        9.12977
C         17.96865       28.14837        8.96448
C         15.53508       28.47395        7.73651
C         16.50829       29.43097        7.54155
C         17.75930       29.27083        8.16107
H         18.92707       28.02677        9.45127
H         17.21080       26.31262        9.72337
H         14.56447       28.62523        7.29099
C         18.84259       30.27295        8.01362
Cl        18.52938       31.73093        9.06369
H         18.92899       30.67178        7.00424
H         19.80269       29.88433        8.34950
C         16.24242       30.63837        6.67021
C         14.87229       30.64616        6.05816
H         16.98971       30.65833        5.86937
H         16.37960       31.54051        7.27284
C         14.61419       29.95587        4.87858
C         13.35459       29.96355        4.31137
C         12.31149       30.67274        4.90351
C         12.56641       31.34272        6.09927
C         13.82466       31.32574        6.66731
H         15.41473       29.40953        4.39845
C         10.99592       30.77494        4.25704
C         10.38630       29.68702        3.63433
C         10.34729       32.00813        4.23165
C          9.17109       29.82466        2.98292
C          8.54617       31.06993        2.95154
C          9.13489       32.15029        3.58907
H         10.86599       28.71845        3.66904
H         10.81251       32.86488        4.69648
H          8.64442       33.11359        3.56885
C          7.24726       31.20600        2.21609
H          6.71904       32.11057        2.52237
H          7.46026       31.29393        1.14199
C          8.50305       28.67283        2.27798
H          8.75194       28.73443        1.20967
H          8.88387       27.71898        2.64854
H         14.00136       31.84940        7.59639
H         11.76403       31.87168        6.59316
H         13.18141       29.44064        3.38135
