777
	Energy:    1852.1508659
C         22.81058       -4.09313       -7.85595
C         24.14370       -4.73243       -8.23061
C         24.29952       -5.66121       -9.27535
C         25.54783       -6.23957       -9.54371
C         25.28036       -4.38924       -7.47811
C         26.52050       -4.96033       -7.74693
H         25.21431       -3.67785       -6.66380
C         26.67837       -5.91245       -8.77146
H         25.61769       -6.92763      -10.37355
H         27.35403       -4.67223       -7.11909
C         28.03328       -6.52212       -8.98481
C         29.15168       -5.66380       -8.87030
C         30.46488       -6.12538       -9.02213
H         29.00774       -4.60721       -8.67825
C         28.27480       -7.90324       -9.26536
C         29.60002       -8.34896       -9.39202
C         30.68557       -7.48621       -9.26363
C         32.05583       -8.07868       -9.38516
H         29.79581       -9.39817       -9.58741
C         31.59464       -5.13052       -8.92376
C         32.97278       -5.71890       -9.07768
H         31.54123       -4.63138       -7.93176
H         31.44899       -4.36501       -9.71671
C         33.18071       -7.09641       -9.26422
H         32.13790       -8.57552      -10.37697
H         32.17111       -8.84773       -8.58968
C         34.08260       -4.86145       -9.02836
C         34.48216       -7.59803       -9.34903
C         35.59957       -6.74926       -9.28763
H         34.60686       -8.66390       -9.48736
C         35.38103       -5.36609       -9.14743
H         33.94147       -3.79588       -8.89272
C         36.97588       -7.31935       -9.35928
H         36.20789       -4.67128       -9.08952
C         37.22702       -8.62423       -8.88848
C         38.05216       -6.57810       -9.88438
C         38.51047       -9.15788       -8.91764
H         36.44466       -9.23539       -8.46111
C         39.33385       -7.13280       -9.94739
H         37.90686       -5.57935      -10.27302
C         39.57698       -8.41842       -9.44281
H         38.67235      -10.15671       -8.53018
H         40.13278       -6.54945      -10.38106
C         40.94926       -9.03661       -9.45505
C         41.41944       -9.30997       -8.02790
H         41.69101       -8.45973      -10.02492
H         40.85362       -9.97775      -10.04004
C         41.71185       -8.30294       -7.04612
C         41.57822       -6.81541       -7.28237
C         41.92510       -6.17233       -8.48990
C         41.75870      -11.07558       -6.33380
C         41.44475      -10.66619       -7.64391
C         42.09181      -10.09012       -5.40201
C         42.05638       -8.73731       -5.74520
C         41.01927       -6.01573       -6.26095
C         40.75604       -4.65997       -6.46352
C         41.64942       -4.81290       -8.69751
C         41.04083       -4.05242       -7.69379
H         41.89374       -4.36173       -9.65114
H         42.40035       -6.69632       -9.29392
H         40.28439       -4.09130       -5.67099
H         40.72472       -6.44332       -5.31192
H         41.16380      -11.39850       -8.38042
H         42.29010       -8.02269       -4.96693
H         42.33438      -10.36640       -4.38296
C         41.66593      -12.53177       -5.85996
C         40.63324       -2.61440       -7.91904
C         41.44452       -1.68452       -7.03670
H         39.55513       -2.63280       -7.71139
H         40.75686       -2.29948       -8.97858
C         40.97736      -13.45584       -6.86651
H         41.03983      -12.46378       -4.94317
H         42.60326      -12.96208       -5.45857
C         40.95435       -1.00125       -5.88119
C         41.88740       -0.30231       -5.08233
C         43.23865       -0.18859       -5.44539
C         42.79317       -1.54185       -7.39570
C         43.67958       -0.77457       -6.63968
H         41.56120        0.20574       -4.18329
H         43.15929       -2.03059       -8.29277
C         39.51089       -0.96080       -5.46760
C         39.13929       -0.98697       -4.10656
C         37.79409       -0.89858       -3.72606
C         36.78757       -0.76422       -4.69462
C         37.15026       -0.72548       -6.04730
C         38.48896       -0.81223       -6.42597
H         38.71447       -0.72103       -7.47895
H         39.88611       -1.08572       -3.32979
H         37.54122       -0.92501       -2.67349
H         36.39784       -0.61135       -6.81702
C         35.33193       -0.64312       -4.29547
C         44.16729        0.57903       -4.53806
C         45.07951       -0.60872       -7.15976
C         45.58297        0.71339       -5.03826
H         44.18420        0.06480       -3.55260
H         43.75928        1.60376       -4.39841
C         45.99153        0.19982       -6.28400
H         45.01646       -0.11433       -8.15393
H         45.53316       -1.61566       -7.29015
C         47.30046        0.42809       -6.73398
C         46.52023        1.37919       -4.23118
C         47.83954        1.54749       -4.66049
C         48.23016        1.10016       -5.93041
H         47.60604        0.04795       -7.70250
H         46.22771        1.76650       -3.26274
H         48.54388        2.06312       -4.01929
C         49.84659        1.84731       -7.68591
C         51.15093        2.04453       -8.14139
C         52.26553        1.65463       -7.37063
C         52.01678        1.05835       -6.09893
C         49.61016        1.30894       -6.41837
C         50.69558        0.93235       -5.62954
H         49.01708        2.14374       -8.31662
H         51.25409        2.48703       -9.10919
H         50.51091        0.47626       -4.66311
C         53.70619        1.82227       -7.85779
C         53.10290        0.44280       -5.23160
C         52.84221       -1.04871       -5.23051
H         53.05832        0.88076       -4.21075
H         54.12832        0.60775       -5.61303
C         52.52264       -1.74295       -4.05847
C         52.18973       -3.10403       -4.11011
C         52.15759       -3.80696       -5.34115
C         52.85613       -1.74415       -6.44703
C         52.51671       -3.09148       -6.50441
C         51.72757       -5.25275       -5.42310
H         53.10024       -1.23328       -7.36913
H         52.53960       -3.54414       -7.48149
H         51.92107       -3.57277       -3.17712
H         52.49957       -1.22617       -3.10712
C         51.36773       -5.84082       -6.66028
C         51.64119       -6.06379       -4.27239
C         51.22694       -7.39381       -4.35923
C         50.94061       -7.17469       -6.75250
C         50.87436       -7.95984       -5.59071
H         51.38613       -5.27771       -7.57887
H         51.90110       -5.69720       -3.29226
H         51.17937       -7.98893       -3.45492
C         50.43607       -9.39734       -5.61404
C         50.07762       -9.93406       -6.97451
H         49.55025       -9.50629       -4.95091
H         51.26581      -10.01479       -5.20549
C         50.56279       -7.70782       -8.11281
C         50.12939       -9.14886       -8.13772
H         51.44532       -7.60308       -8.78103
H         49.73415       -7.08606       -8.51632
C         49.69250      -11.27727       -7.06739
C         49.34672      -11.87032       -8.30082
C         49.40268      -11.06815       -9.45396
C         49.78499       -9.72563       -9.37050
C         49.02066      -13.33623       -8.34799
C         49.80059      -14.16174       -7.51009
C         48.02632      -13.96086       -9.17332
H         49.20136      -11.47606      -10.43379
H         49.83391       -9.13590      -10.27801
H         49.66324      -11.86043       -6.15511
C         49.65030      -15.53730       -7.49155
H         50.57653      -13.75171       -6.87692
C         48.70528      -16.16407       -8.29792
C         47.89072      -15.36994       -9.12896
H         47.15087      -15.83857       -9.76390
H         50.29413      -16.12400       -6.84622
C         48.66119      -17.67807       -8.23241
C         47.56795      -18.35032       -9.04574
H         48.53115      -17.99827       -7.17510
H         49.67107      -17.98774       -8.54493
C         41.48490      -13.90399       -8.15389
C         42.92428      -13.67623       -8.68232
C         43.92795      -12.97625       -7.96030
C         39.68846      -13.85607       -6.45485
C         38.86151      -14.61056       -7.25568
C         39.24892      -14.95660       -8.54210
C         40.54987      -14.62623       -8.97142
C         43.35675      -14.21777       -9.93096
C         44.67482      -14.07304      -10.39531
C         45.23688      -12.84387       -8.41850
C         45.62820      -13.39287       -9.63341
H         39.28608      -13.56796       -5.49092
H         40.79711      -14.97256       -9.95544
H         42.71629      -14.77847      -10.58446
H         43.78736      -12.50717       -7.02843
H         45.95650      -12.30251       -7.81425
H         44.95198      -14.50832      -11.34762
C         47.05854      -13.22174      -10.09274
H         47.21242      -12.13325      -10.12245
H         47.19696      -13.61188      -11.12462
C         47.81265      -19.19793      -10.16333
C         49.21452      -19.54479      -10.55781
C         50.06065      -20.16434       -9.62047
C         46.25547      -18.10866       -8.63747
C         45.16829      -18.68034       -9.28958
C         45.37370      -19.50505      -10.41151
C         46.70246      -19.76443      -10.86433
C         51.36526      -20.52013       -9.95933
C         51.85672      -20.27347      -11.24962
C         49.71210      -19.29174      -11.84866
C         51.02050      -19.65166      -12.19057
C         53.26740      -20.67713      -11.61726
H         46.07772      -17.47474       -7.77463
C         46.95008      -20.70114      -12.03969
H         49.09959      -18.79999      -12.59113
H         51.37878      -19.44547      -13.19141
H         51.98822      -20.99432       -9.21208
H         49.70338      -20.38233       -8.62107
C         36.41618      -13.97443       -8.98704
C         36.83385      -15.21819       -9.49337
C         38.27632      -15.73413       -9.42135
H         38.68007      -15.90131      -10.44281
H         38.20123      -16.72525       -8.93909
C         35.06236      -13.62991       -8.95815
C         34.06899      -14.49621       -9.45292
C         34.48217      -15.75876       -9.99652
C         35.85696      -16.08074      -10.01807
H         34.78644      -12.67542       -8.52624
H         36.16390      -17.05028      -10.39536
C         32.62648      -14.11020       -9.26207
C         33.51032      -16.83516      -10.48008
C         33.38992      -18.08729       -9.62681
H         33.76429      -17.10984      -11.52661
H         32.48376      -16.47298      -10.49042
C         31.64278      -14.25870      -10.26201
C         32.21578      -13.66204       -7.99073
C         30.28550      -14.06952       -9.96964
C         29.88238      -13.71395       -8.67446
C         28.42153      -13.71196       -8.28497
C         27.89904      -12.38240       -7.76883
C         27.50577      -12.11886       -6.41059
C         27.44762      -13.14065       -5.30267
H         31.91531      -14.56606      -11.26375
H         29.54931      -14.25687      -10.74128
C         27.81315      -11.34863       -8.72003
C         27.12529      -10.79813       -6.07941
C         27.06682       -9.79140       -7.03736
C         27.38190      -10.06463       -8.36674
H         26.82119      -10.53653       -5.07477
H         26.73579       -8.80104       -6.74764
H         28.07987      -11.55088       -9.75138
H         23.47230       -5.96318       -9.88936
C         27.22372       -8.98589       -9.40833
H         27.33659       -9.41244      -10.42942
H         26.18334       -8.64858       -9.31232
C         27.30264      -15.01789       -3.16779
C         26.96302      -15.39043       -4.47352
C         27.72077      -13.69869       -2.93564
C         27.78780      -12.77519       -3.98216
C         27.01158      -14.46469       -5.51781
H         28.12657      -11.77458       -3.74920
H         28.00082      -13.37784       -1.93984
H         26.66001      -16.40160       -4.69732
H         26.67504      -14.80234       -6.48597
C         27.26736      -16.00999       -2.02173
C         43.80497      -18.40023       -8.71384
C         42.66750      -19.09862       -9.40106
H         43.61188      -17.30520       -8.72311
H         43.81664      -18.75038       -7.65832
C         42.83905      -19.85299      -10.50351
C         44.18604      -20.12973      -11.11294
H         44.16934      -19.76989      -12.16429
H         44.30761      -21.23398      -11.09559
C         41.61751      -20.42929      -11.17021
C         40.66235      -20.97464      -10.11770
C         41.31511      -19.00182       -8.77815
C         40.32015      -19.87938       -9.09954
C         38.96343      -19.84239       -8.42568
C         38.61896      -18.84886       -7.47511
C         37.35382      -18.81855       -6.88173
C         36.39452      -19.77965       -7.21274
C         36.72330      -20.78320       -8.12879
C         37.98267      -20.81751       -8.72289
C         35.01110      -19.74343       -6.61407
C         33.99153      -19.52952       -7.72549
H         34.91398      -18.91872       -5.87470
H         34.92385      -20.70348       -6.08676
H         35.99434      -21.54103       -8.39126
H         38.15272      -21.62417       -9.41433
H         39.29852      -18.06835       -7.17769
H         37.12091      -18.03341       -6.17285
H         41.19470      -18.24492       -8.01804
C         32.41276      -19.01491       -9.99158
C         32.18891      -20.15811       -9.23396
C         32.94664      -20.44823       -8.07763
C         34.16850      -18.35348       -8.49159
H         34.94116      -17.65987       -8.19535
H         31.78954      -18.83548      -10.86006
H         31.38172      -20.79861       -9.55880
C         32.57616      -21.68981       -7.30131
C         32.68032      -21.75608       -5.89623
C         32.31733      -22.90883       -5.19576
C         31.81405      -24.03142       -5.86933
C         32.03725      -22.81627       -7.96380
C         31.65692      -23.96092       -7.26037
H         31.91078      -22.83354       -9.03688
H         33.00953      -20.91163       -5.31109
H         32.41998      -22.91566       -4.11759
H         31.23454      -24.78276       -7.81672
C         31.41725      -25.26413       -5.07965
H         30.25607        0.43287       -6.19223
H         32.66398        0.62433       -6.58271
H         23.90754        1.22800       -4.75157
C         30.92443        0.49184       -5.34215
H         24.64643        3.20487       -6.09032
C         32.30067        0.60207       -5.56295
H         28.59291       -0.66323       -4.22596
C         22.41483        2.75521       -4.48299
C         23.85652        2.24701       -4.30935
C         24.89991        3.13329       -5.01040
C         26.71106        1.45989       -4.22514
N         26.25341        2.62238       -4.88505
C         27.39785        3.24516       -5.42404
C         28.51358        2.49676       -5.10078
C         28.92450        0.30197       -3.78687
N         28.11223        1.36958       -4.34690
H         26.09274        0.74551       -3.69770
C         30.41242        0.45318       -4.03584
H         27.39630        4.16367       -5.99617
H         29.52290        2.73905       -5.38524
C         33.20028        0.65041       -4.48235
C         34.69780        0.70083       -4.74839
H         24.09118        2.17487       -3.22485
H         24.87876        4.15199       -4.57185
H         28.73101        0.25885       -2.69303
C         31.30785        0.51549       -2.95422
C         32.68677        0.60318       -3.17406
H         30.94256        0.47701       -1.93565
H         33.35186        0.62999       -2.32095
H         35.22169       -0.74797       -3.19374
H         34.78530       -1.48761       -4.77036
H         16.38614        4.20149      -10.11903
C         13.79252        4.59841       -9.26770
C         16.29035        4.29211       -9.01515
C         14.90359        3.78928       -8.58893
H         14.79933        2.71875       -8.87240
C         18.74860        3.80243       -8.60515
C         19.49157        2.90937       -7.85324
H         20.57164        2.85846       -7.80869
N         17.37397        3.55205       -8.39391
H         14.80226        3.88667       -7.48553
H         16.38869        5.36429       -8.73812
H         19.49758       -2.27426       -9.46384
C         19.97813       -1.76683       -8.64626
H         18.20556       -0.59370       -8.32541
C         19.22108       -0.78395       -7.99962
C         17.30224        2.47335       -7.48441
N         18.60614        2.06786       -7.14762
H         16.39660        2.02202       -7.10115
C         22.21936       -3.10624       -8.91235
C         21.30752       -2.04897       -8.24388
C         19.76928       -0.04697       -6.94490
C         18.97111        1.00604       -6.23925
H         18.06527        0.54457       -5.78971
C         21.84388       -1.26474       -7.19464
C         21.08348       -0.28889       -6.55116
H         22.86486       -1.39406       -6.86231
H         21.52632        0.28183       -5.74680
H         50.80367       10.54045      -16.22269
H         52.70630        9.77019      -14.75515
C         50.40257       11.13938      -15.37582
C         52.30730       10.36678      -13.90690
H         48.64183       11.73196      -16.49177
H         50.84112       12.16014      -15.42181
C         48.88779       11.24740      -15.52344
H         48.42497       10.23771      -15.50320
C         50.78313       10.47408      -14.04811
H         50.34010        9.45440      -14.01183
H         54.92601        9.76261      -12.87896
C         54.05754        9.49521      -12.29138
H         48.46244       11.86068      -14.70060
N         52.71713        9.73478      -12.66639
H         54.96008        8.54749      -10.52305
C         54.07653        8.86028      -11.06381
H         50.37850       11.07887      -13.20693
H         52.75135       11.38497      -13.95102
H         52.14913        3.72964      -10.97468
H         51.49129        6.06214      -10.99992
H         50.83353        9.25436      -11.57504
C         52.59922        4.38633      -10.24634
C         52.21451        5.72879      -10.26557
C         51.91448        9.23385      -11.61648
N         52.74717        8.68786      -10.62249
C         54.02803        2.46008       -9.24711
C         53.54701        3.91665       -9.30986
H         51.22884        8.13509       -9.26463
C         52.75381        6.63578       -9.34482
C         52.33340        8.08018       -9.37795
C         54.07979        4.84236       -8.39000
C         53.68515        6.18206       -8.40316
H         54.81402        4.53319       -7.65808
H         54.11722        6.86640       -7.68364
H         52.79046        8.65126       -8.54093
H         17.33790      -20.54809       -4.70537
C         16.78442      -23.22467       -5.06153
C         18.21601      -21.20934       -4.53522
C         18.07237      -22.46615       -5.40057
H         18.05475      -22.16753       -6.47198
H         18.68243      -18.53418       -5.58554
C         19.52212      -19.18324       -5.37459
N         19.43003      -20.49784       -4.87068
H         21.22199      -17.93414       -5.95637
C         20.85722      -18.87076       -5.56458
H         18.94451      -23.13448       -5.23034
H         18.24372      -21.48768       -3.45947
H         24.39224      -15.85533       -3.81073
H         23.25573      -17.35300       -5.33968
H         21.02619      -21.96160       -4.39807
C         24.43652      -16.91797       -3.61707
C         23.77070      -17.77920       -4.49306
C         20.74769      -20.97862       -4.75600
N         21.64730      -19.97970       -5.17752
C         25.88076      -16.51407       -1.52701
C         25.14835      -17.42248       -2.51199
H         23.45329      -19.95988       -6.26801
C         23.78943      -19.16668       -4.28308
C         23.09056      -20.11653       -5.22992
C         25.15322      -18.81235       -2.29895
C         24.49039      -19.67313       -3.17682
H         25.68135      -19.23834       -1.45494
H         24.52441      -20.73884       -2.98711
H         23.34846      -21.16166       -4.94913
H         48.85903      -31.04686      -19.19462
H         50.61362      -29.83445      -17.83555
C         48.47317      -30.06827      -19.55501
C         50.22675      -28.85564      -18.19449
H         46.82945      -30.99186      -20.62400
H         49.00392      -29.79953      -20.49438
C         46.98322      -30.20696      -19.85379
H         46.43053      -30.49730      -18.93490
C         48.72662      -28.99168      -18.49351
H         48.19123      -29.26919      -17.55889
H         52.67056      -27.99175      -17.07720
C         51.75397      -27.52638      -16.73796
H         46.57534      -29.24746      -20.23731
N         50.51963      -27.83605      -17.18017
C         51.64187      -26.53217      -15.78988
H         48.33717      -28.01736      -18.86247
H         50.76023      -28.58725      -19.13250
H         51.57092      -23.92468      -10.63712
H         49.98159      -25.20775      -11.93380
C         51.58032      -23.83224      -11.71936
C         50.68475      -24.55515      -12.44178
C         49.67046      -27.03186      -16.50201
C         53.48098      -22.20484      -11.49003
C         52.54508      -22.93865      -12.40220
C         50.67972      -24.44786      -13.94172
C         49.69290      -25.24312      -14.76385
C         51.56953      -23.61298      -14.52800
H         23.01168       -3.52827       -6.92923
H         22.06839       -4.83664       -7.52122
H         27.74435      -15.53267       -1.13653
H         27.90880      -16.87885       -2.28563
H         53.50251      -20.36141      -12.65808
H         53.96864      -20.14316      -10.93955
H         54.18760        0.82186       -7.85398
H         54.22641        2.42569       -7.08542
H         30.78513        4.82804       -5.75272
H         33.03229        4.03704       -6.30782
H         23.84370        9.46916       -1.27824
H         25.80579       10.86757       -0.59834
H         26.21509        8.75448       -1.88229
C         31.45699        4.55082       -4.94996
H         28.16395       10.16637       -1.19248
C         32.73914        4.09723       -5.26717
H         29.07046        5.30280       -4.19348
C         24.15920        9.52578       -0.21457
C         25.64087        9.87799       -0.11882
C         26.50679        8.81912       -0.81084
H         23.55699       10.30808        0.29366
C         27.99676        9.17696       -0.71376
C         28.49418        7.01384       -2.03581
N         28.85488        8.19969       -1.35912
C         30.26212        8.28126       -1.42678
C         30.74569        7.18556       -2.11863
C         29.65904        5.13297       -3.26682
N         29.65388        6.37139       -2.50842
H         27.48673        6.64531       -2.17841
C         31.04752        4.64940       -3.61081
H         30.86051        9.07919       -1.00699
H         31.78890        6.99351       -2.32835
C         33.63871        3.74056       -4.25047
C         35.03956        3.29754       -4.60076
H         23.96180        8.54941        0.27719
H         25.92399        9.94976        0.95405
H         26.33449        7.83344       -0.32509
H         28.28437        9.24915        0.35770
H         29.14954        4.33895       -2.67941
C         31.94068        4.28054       -2.59350
C         33.22690        3.83769       -2.90908
H         31.64194        4.34527       -1.55451
H         33.90212        3.57441       -2.10524
C         35.42249        1.89974       -4.07607
H         34.85326        0.78592       -5.84546
H         37.12186      -13.26596       -8.57866
H         37.88318      -14.88479       -6.87954
H         41.09028      -19.59977      -11.69241
H         41.88526      -21.19381      -11.93154
H         41.14516      -21.82512       -9.58905
H         39.78072      -21.33888      -10.67518
H         28.40925      -14.50469       -7.53337
H         27.77351      -14.04476       -9.12521
H         46.04196      -21.14894      -12.47970
H         47.59402      -21.54495      -11.71319
H         47.43255      -20.16768      -12.87706
C         53.60013        1.51183      -10.41275
H         52.67413        4.32259      -15.19617
H         52.87090        2.19964      -13.99476
H         52.86481       11.60506      -20.25128
H         53.96230        9.68299      -21.42028
H         53.29444        9.41645      -19.01947
C         53.31845        4.26544      -14.32740
H         54.39058        7.50618      -20.20860
C         53.43199        3.05521      -13.64018
H         52.81694        6.99270      -14.62895
C         53.94412       11.64067      -20.51210
C         54.51032       10.22781      -20.62073
C         54.37096        9.47269      -19.29397
H         54.05746       12.16296      -21.48542
C         54.93757        8.05006      -19.40795
C         54.27442        7.70213      -16.93592
N         54.81937        7.29530      -18.17334
C         55.24845        5.96244      -17.99743
C         54.97094        5.56551      -16.70176
C         53.89020        6.70420      -14.64084
N         54.35332        6.64000      -16.01573
H         53.85255        8.67409      -16.71797
C         54.03004        5.39647      -13.89986
H         55.72033        5.35464      -18.75827
H         55.19712        4.59283      -16.28709
C         54.24694        2.95361      -12.49947
C         54.35283        1.63095      -11.76867
H         54.48894       12.21634      -19.73377
H         55.58368       10.29177      -20.90383
H         56.01175        8.10665      -19.68883
H         54.46417        7.50207      -14.12733
C         54.85468        5.29881      -12.76865
C         54.96552        4.08829      -12.07746
H         55.41229        6.15845      -12.41816
H         55.61218        4.03919      -11.21135
Cl        56.07206        1.15835      -11.60797
H         53.89198        0.84427      -12.40663
H         35.31782        1.85290       -2.97151
H         36.50541        1.79273       -4.30070
Cl        36.18267        4.49714       -3.92805
H         35.18856        3.30471       -5.70291
C         21.58893       -3.80307      -10.16705
H         23.07114       -2.49549       -9.28811
H         19.52882       -4.72694      -14.59750
H         20.87484       -4.12250      -12.67602
H         11.73205       -6.56722      -19.81457
H         10.76033       -5.03037      -18.09305
H         13.15291       -5.74282      -17.86150
C         19.22164       -5.06934      -13.61708
H         12.16035       -4.21006      -16.14680
C         19.99333       -4.72158      -12.50305
H         17.70801       -5.87470      -15.60489
C         10.98427       -6.93670      -19.08087
C         11.01017       -6.07870      -17.81934
C         12.38804       -6.12218      -17.14865
H          9.97647       -6.88679      -19.54433
C         12.40832       -5.26007      -15.87855
C         14.87773       -5.95661      -15.56863
N         13.69464       -5.27568      -15.20554
C         13.98868       -4.57905      -14.01428
C         15.30107       -4.82844      -13.65729
C         17.23082       -6.23203      -14.66669
N         15.88069       -5.69673      -14.61543
H         15.00478       -6.58933      -16.43720
C         18.06532       -5.84848      -13.46787
H         13.29403       -3.95033      -13.47280
H         15.79702       -4.41870      -12.78814
C         19.62423       -5.15125      -11.20908
C         20.40604       -4.80859       -9.94473
H         11.20915       -7.99580      -18.83210
H         10.23863       -6.45660      -17.11336
H         12.62859       -7.17446      -16.88013
H         11.63573       -5.63689      -15.17338
H         17.18330       -7.34142      -14.71105
C         17.69752       -6.28506      -12.18802
C         18.46441       -5.93871      -11.07520
H         16.81157       -6.89336      -12.05214
H         18.14888       -6.28616      -10.09888
H         22.37140       -4.30407      -10.76756
H         21.22997       -2.96118      -10.79638
Cl        20.93192       -6.36538       -9.23107
H         19.68067       -4.36699       -9.23884
C         30.86148      -13.47339       -7.69895
H         32.93492      -13.53416       -7.19116
H         30.57219      -13.20282       -6.69057
C         32.21326      -26.57786       -5.34075
H         31.53098      -25.04562       -3.99433
H         30.33448      -25.45078       -5.24860
H         19.14926        4.57209       -9.25167
C         31.96270      -27.17494       -6.75046
C         32.40857      -28.64806       -6.93580
H         30.85811      -27.16362       -6.88167
H         32.43890      -26.56051       -7.53929
Cl        34.19315      -28.80503       -6.89660
H         31.89692      -32.37429       -9.69472
H         32.69771      -31.23536       -7.68356
H         29.37627      -33.87208      -18.70467
H         31.13866      -32.12770      -19.05564
H         30.48344      -32.72676      -16.71136
C         31.69383      -31.31759       -9.57322
H         32.23969      -30.97893      -17.08063
C         32.15166      -30.66490       -8.42499
H         30.67427      -32.40604      -11.73017
C         29.11132      -32.86867      -19.10092
C         30.14241      -31.83423      -18.65864
C         30.20528      -31.73467      -17.13020
H         29.08667      -32.91939      -20.20987
C         31.24059      -30.69008      -16.68731
C         30.64963      -31.21192      -14.26347
N         31.33058      -30.55454      -15.22849
C         32.15270      -29.70278      -14.58495
C         31.95966      -29.85022      -13.22773
C         30.45367      -31.31748      -11.78093
N         31.01361      -30.79607      -13.03413
H         29.90166      -31.97404      -14.44147
C         30.97532      -30.61405      -10.54993
H         32.84339      -29.02262      -15.06667
H         32.47897      -29.30478      -12.45159
C         31.90275      -29.29417       -8.22246
H         28.10065      -32.58720      -18.73549
H         29.86457      -30.84624      -19.08654
H         29.20386      -31.44255      -16.74407
H         30.96283      -29.70320      -17.11803
H         29.34882      -31.19662      -11.79777
C         30.72134      -29.24863      -10.35864
C         31.17960      -28.59328       -9.21343
H         30.16193      -28.69018      -11.09943
H         30.95425      -27.54100       -9.12120
H         31.97763      -29.23304       -6.09415
H         53.81231        0.46805      -10.09123
H         52.50944        1.54445      -10.58634
H         55.13890        2.48068       -9.29211
C         24.98520      -15.35384       -1.01918
H         26.14711      -17.13781       -0.64514
H         21.04273      -12.23942       -1.78826
H         22.54055      -14.12629       -2.16763
H         17.09413       -4.64096        2.10159
H         19.41572       -4.40057        3.00793
H         18.83312       -6.46308        1.70903
C         21.39999      -12.80423       -0.93612
H         21.14902       -6.20643        2.62427
C         22.26034      -13.88292       -1.15033
H         19.71764      -10.88582       -0.37734
C         17.28957       -4.72517        3.19194
C         18.73052       -5.16194        3.44050
C         19.01115       -6.52835        2.80505
H         17.11425       -3.73462        3.66201
C         20.46178       -6.96671        3.05569
C         19.98166       -9.10404        1.75354
N         20.77613       -8.27255        2.46364
C         21.97569       -8.88188        2.53731
C         21.89712      -10.08445        1.86725
C         20.05439      -11.30842        0.59449
N         20.64297      -10.21769        1.38110
H         18.94474       -8.91253        1.50837
C         21.00153      -12.46222        0.36301
H         22.84657       -8.48065        3.03958
H         22.70246      -10.79621        1.74747
C         22.74389      -14.64985       -0.07262
C         23.66069      -15.82973       -0.37245
H         16.58193       -5.45875        3.63385
H         18.90456       -5.21680        4.53732
H         18.32047       -7.28203        3.24336
H         20.63882       -7.02191        4.15207
H         19.15731      -11.69921        1.12164
C         21.47367      -13.22138        1.44401
C         22.33459      -14.30257        1.23206
H         21.16947      -12.97668        2.45444
H         22.66754      -14.85517        2.09831
H         24.77045      -14.68709       -1.87866
H         25.54431      -14.74940       -0.27142
Cl        24.02316      -16.84174        1.06775
H         23.10562      -16.48171       -1.07973
C         54.95577      -22.56914      -11.79105
H         53.29200      -22.47422      -10.42928
H         58.56568      -26.21460      -14.14342
H         56.23425      -25.69702      -13.60509
H         67.70713      -28.22990      -12.94632
H         66.80409      -29.02337      -10.75041
H         65.26200      -27.83886      -12.33253
C         58.35271      -25.54187      -13.32202
H         64.38258      -28.63999      -10.13018
C         57.02151      -25.24557      -13.01413
H         60.89521      -25.93154      -13.81072
C         67.99831      -27.72919      -11.99839
C         66.92044      -27.93354      -10.93787
C         65.58008      -27.34207      -11.38962
H         68.95586      -28.16642      -11.64494
C         64.49888      -27.55038      -10.31933
C         62.83450      -26.35836      -11.84003
N         63.19425      -27.00005      -10.70577
C         62.08434      -27.05429       -9.94414
C         61.05582      -26.44162      -10.62672
C         60.83753      -25.29900      -12.89813
N         61.53366      -26.00463      -11.81381
H         63.49651      -26.14840      -12.67052
C         59.39728      -24.98041      -12.57135
H         62.02512      -27.50888       -8.96353
H         60.03938      -26.33429      -10.27347
C         56.71030      -24.37835      -11.95290
C         55.26665      -24.07397      -11.61726
H         68.15123      -26.64564      -12.18970
H         67.24724      -27.44241       -9.99532
H         65.70651      -26.25267      -11.57483
H         64.82515      -27.06086       -9.37568
H         61.36308      -24.34378      -13.11414
C         59.08943      -24.10734      -11.51623
C         57.75986      -23.81046      -11.20802
H         59.88217      -23.65998      -10.92914
H         57.55103      -23.14100      -10.38343
H         55.60786      -21.98271      -11.10820
H         55.20025      -22.27148      -12.83518
Cl        54.93052      -24.62778       -9.94811
H         54.60291      -24.65056      -12.29703
C         52.45028      -22.91429      -13.61422
H         51.61229      -23.48478      -15.60819
H         53.01423      -22.35250      -14.31466
N         50.33271      -26.22508      -15.64905
H         52.46176      -26.08027      -15.24843
H         49.08966      -24.53369      -15.37066
H         49.00014      -25.78995      -14.08847
H         48.59424      -27.02682      -16.61889
C         22.16372        4.11804       -3.83771
H         21.73223        2.02269       -4.00041
H         22.16077        2.80608       -5.56411
H         22.39665        4.07892       -2.75244
H         21.09437        4.39058       -3.96160
H         22.77199        4.91071       -4.31806
C         12.41299        4.10116       -8.84543
H         13.88434        4.50657      -10.37200
H         13.88768        5.67078       -8.98963
H         12.28228        3.03569       -9.13145
H         11.62917        4.70369       -9.35092
H         12.28576        4.20230       -7.74646
C         16.63912      -24.47528       -5.92386
H         15.90567      -22.56573       -5.23439
H         16.79946      -23.52647       -3.99146
H         16.59982      -24.20028       -6.99948
H         15.69984      -25.00422       -5.65759
H         17.49485      -25.16309       -5.75408
H         42.52570      -31.15583       -1.45204
H         42.38183      -31.54520        0.99595
H         41.47355      -30.35202       -3.60729
C         41.54867      -31.02818       -0.93675
C         41.80544      -30.71584        0.53452
H         39.61512      -30.02314       -5.76406
H         40.98113      -31.98181       -1.00700
H         42.39146      -29.77729        0.63336
C         40.49736      -30.22324       -3.09056
H         39.93129      -31.17776       -3.16170
C         39.38113      -29.21655       -5.08111
C         40.75333      -29.90409       -1.61064
H         41.32816      -28.95492       -1.53511
N         39.73639      -29.17528       -3.78076
H         40.84362      -30.60499        1.07922
C         38.67888      -28.06818       -5.37897
H         38.25551      -27.79879       -6.33814
H         39.77863      -29.78388       -1.08848
C         39.25072      -28.00818       -3.29961
N         38.60169      -27.32129       -4.25988
H         39.36043      -27.66167       -2.28010
C         37.94425      -26.02277       -4.12212
H         38.42666      -25.30464       -4.81968
H         36.50159      -24.77176       -6.18861
C         36.47268      -26.14921       -4.42481
C         35.87899      -25.40998       -5.56878
C         35.68462      -26.94055       -3.66985
C         34.57294      -25.53480       -5.85211
H         38.06901      -25.63157       -3.08867
H         36.09816      -27.49247       -2.83070
H         34.17285      -24.99571       -6.70173
C         34.24178      -27.07676       -3.97893
C         33.69399      -26.41178       -5.02072
H         33.63863      -27.72835       -3.35399
H         31.76345      -27.30437       -4.62557
H         54.92181       10.02451      -18.50071
