1245
	Energy:    2540.0965763
C         21.70320       -5.72768       -8.48311
C         23.14664       -6.19359       -8.64762
C         23.53745       -7.13779       -9.60828
C         24.87548       -7.55412       -9.69765
C         24.13595       -5.66352       -7.79560
C         25.46817       -6.07217       -7.88967
H         23.87994       -4.92714       -7.04341
C         25.86301       -7.04515       -8.82455
H         25.13075       -8.26939      -10.46696
H         26.18453       -5.64547       -7.19879
C         27.29996       -7.49840       -8.85656
C         28.31759       -6.51954       -8.71072
C         29.68637       -6.85250       -8.74519
H         28.04932       -5.47553       -8.60000
C         27.70177       -8.86158       -9.01484
C         29.06792       -9.17374       -9.02720
C         30.05231       -8.19688       -8.89312
C         31.47748       -8.65843       -8.91557
H         29.37696      -10.20753       -9.14198
C         30.72364       -5.75105       -8.63981
C         32.16495       -6.21385       -8.70797
H         30.57442       -5.20969       -7.68061
H         30.55138       -5.04140       -9.47801
C         32.50338       -7.57214       -8.81547
H         31.62938       -9.36836       -8.07304
H         31.64926       -9.19766       -9.87337
C         33.20033       -5.26186       -8.67123
C         33.84716       -7.95986       -8.84974
C         34.89292       -7.01984       -8.81167
H         34.05714       -9.01591       -8.94257
C         34.54653       -5.65587       -8.73795
H         32.96421       -4.20715       -8.59658
C         36.31881       -7.48810       -8.87311
H         35.30807       -4.88856       -8.70521
C         36.66209       -8.78236       -8.42656
C         37.34897       -6.67470       -9.39332
C         37.97134       -9.24652       -8.50003
H         35.93015       -9.45205       -8.00032
C         38.66295       -7.15865       -9.49568
H         37.14209       -5.67935       -9.76152
C         38.98388       -8.44859       -9.04402
H         38.19152      -10.24739       -8.14859
H         39.42280       -6.52590       -9.93252
C         40.37385       -9.02749       -9.15545
C         40.95965       -9.30465       -7.77461
H         41.04565       -8.43887       -9.79013
H         40.25780       -9.96841       -9.73733
C         41.35310       -8.29120       -6.83617
C         41.27851       -6.80387       -7.10381
C         41.60777       -6.21793       -8.34545
C         41.39384      -11.05778       -6.09134
C         40.99371      -10.66092       -7.38083
C         41.79963      -10.06470       -5.19524
C         41.77235       -8.71470       -5.55491
C         40.82618       -5.94036       -6.08134
C         40.64214       -4.57303       -6.31544
C         41.41572       -4.85098       -8.58201
C         40.90855       -4.02131       -7.57769
H         41.64352       -4.44663       -9.56034
H         42.01684       -6.78996       -9.15246
H         40.24634       -3.95068       -5.52168
H         40.55723       -6.32484       -5.10623
H         40.64865      -11.40371       -8.08275
H         42.07902       -7.99379       -4.80821
H         42.10658      -10.33376       -4.19168
C         41.32014      -12.50643       -5.59421
C         40.57385       -2.57190       -7.85233
C         41.42694       -1.61039       -7.03772
H         39.50215       -2.54626       -7.62390
H         40.68598       -2.31531       -8.92841
C         40.65707      -13.47247       -6.57876
H         40.69767      -12.42892       -4.67569
H         42.26430      -12.91842       -5.19137
C         40.95746       -0.80564       -5.95082
C         41.91406       -0.08647       -5.19815
C         43.27322       -0.05839       -5.55835
C         42.78157       -1.55009       -7.39608
C         43.69462       -0.75506       -6.70001
H         41.60128        0.50444       -4.34601
H         43.13072       -2.12425       -8.24781
C         39.50767       -0.68001       -5.57223
C         39.10314       -0.59254       -4.22417
C         37.74487       -0.49940       -3.88901
C         36.76079       -0.48070       -4.89289
C         37.15897       -0.51725       -6.23151
C         38.50876       -0.59885       -6.56432
H         38.76134       -0.58926       -7.61501
H         39.82967       -0.63235       -3.42290
H         37.46309       -0.47118       -2.84350
H         36.42492       -0.49359       -7.02616
C         35.29259       -0.48280       -4.54137
C         44.23305        0.74225       -4.71123
C         45.10105       -0.67806       -7.22864
C         45.65192        0.79673       -5.22448
H         44.23648        0.30478       -3.68900
H         43.85949        1.78740       -4.64893
C         46.04122        0.17575       -6.42660
H         45.04981       -0.26593       -8.26008
H         45.52396       -1.70539       -7.27519
C         47.35471        0.33738       -6.90083
C         46.61126        1.49996       -4.47722
C         47.93177        1.60357       -4.92533
C         48.30748        1.05065       -6.15915
H         47.64394       -0.12522       -7.83759
H         46.33466        1.96962       -3.54093
H         48.64969        2.15258       -4.32832
C         49.95176        1.58407       -7.98412
C         51.26577        1.72170       -8.44570
C         52.37229        1.42329       -7.62230
C         52.10068        0.96956       -6.29800
C         49.69560        1.19552       -6.66457
C         50.77358        0.90152       -5.83148
H         49.13117        1.81033       -8.65422
H         51.38414        2.04410       -9.45781
H         50.57899        0.54952       -4.82436
C         53.82742        1.53324       -8.10043
C         53.16713        0.41079       -5.37141
C         52.88176       -1.07645       -5.30292
H         53.10917        0.90875       -4.37919
H         54.20110        0.54232       -5.74154
C         52.52744       -1.71288       -4.10809
C         52.15862       -3.06700       -4.11063
C         52.12157       -3.81522       -5.31452
C         52.89635       -1.82502       -6.48962
C         52.51839       -3.16086       -6.49855
C         51.64989       -5.24703       -5.35205
H         53.16440       -1.36539       -7.43056
H         52.54136       -3.65599       -7.45559
H         51.86157       -3.49493       -3.16609
H         52.50218       -1.15546       -3.18011
C         51.24204       -5.85001       -6.56701
C         51.57409       -6.02805       -4.18200
C         51.13058       -7.35073       -4.23020
C         50.78338       -7.17544       -6.62025
C         50.73561       -7.93553       -5.44088
H         51.24832       -5.30283       -7.49629
H         51.87037       -5.64182       -3.21914
H         51.09636       -7.92603       -3.31279
C         50.27664       -9.36670       -5.42413
C         49.88068       -9.92808       -6.76458
H         49.40671       -9.45192       -4.73711
H         51.10989       -9.98478       -5.02394
C         50.35577       -7.72837       -7.95842
C         49.90700       -9.16576       -7.94372
H         51.21951       -7.64805       -8.65409
H         49.52421       -7.10267       -8.34984
C         49.49074      -11.27252       -6.82230
C         49.11485      -11.88988       -8.03531
C         49.13889      -11.10810       -9.20390
C         49.52607       -9.76446       -9.15554
C         48.80216      -13.36109       -8.04918
C         49.62410      -14.16210       -7.22661
C         47.79348      -14.01444       -8.83506
H         48.91333      -11.53370      -10.17078
H         49.55404       -9.19232      -10.07521
H         49.48670      -11.83932       -5.89933
C         49.50358      -15.54099       -7.18575
H         50.41245      -13.72889       -6.62477
C         48.54741      -16.19909       -7.95231
C         47.68907      -15.42713       -8.76752
H         46.93945      -15.91515       -9.37502
H         50.17893      -16.10493       -6.55262
C         48.53006      -17.71867       -7.85362
C         47.41088      -18.41107       -8.60499
H         48.43374      -18.00866       -6.78408
H         49.52655      -18.05289       -8.19825
C         41.18888      -13.96004       -7.84245
C         42.63522      -13.73097       -8.36204
C         43.62575      -12.99458       -7.65535
C         39.37568      -13.89110       -6.16138
C         38.58004      -14.71217       -6.92994
C         38.98898      -15.11311       -8.19367
C         40.28250      -14.75352       -8.63067
C         43.09165      -14.31648       -9.58228
C         44.41642      -14.18161      -10.03344
C         44.94528      -12.87615       -8.09850
C         45.35935      -13.47036       -9.28570
H         38.95917      -13.57449       -5.21253
H         40.55301      -15.14704       -9.59045
H         42.46462      -14.90497      -10.22404
H         43.46523      -12.48698       -6.74637
H         45.65298      -12.30576       -7.50726
H         44.70715      -14.64944      -10.96608
C         46.79404      -13.30248       -9.74702
H         46.94065      -12.21377       -9.80105
H         46.92726      -13.70971      -10.77290
C         47.62026      -19.32135       -9.67708
C         48.99606      -19.76839      -10.05487
C         49.77383      -20.45141       -9.10198
C         46.11014      -18.12844       -8.18375
C         45.00315      -18.71548       -8.78537
C         45.17664      -19.59252       -9.87253
C         46.49053      -19.89675      -10.33399
C         51.02580      -20.97134       -9.44079
C         51.53266      -20.81061      -10.73857
C         49.51185      -19.59709      -11.35039
C         50.77124      -20.10593      -11.68607
C         52.88127      -21.38366      -11.11207
H         45.95824      -17.45185       -7.34873
C         46.70415      -20.89241      -11.46776
H         48.94427      -19.06782      -12.10364
H         51.14376      -19.96354      -12.69273
H         51.59599      -21.50562       -8.69120
H         49.39461      -20.60920       -8.09938
C         36.05811      -14.39292       -8.66525
C         36.57890      -15.62066       -9.10696
C         38.06494      -15.99889       -9.02977
H         38.47444      -16.18684      -10.04532
H         38.07646      -16.96910       -8.50212
C         34.67911      -14.16776       -8.63745
C         33.75972      -15.14226       -9.07328
C         34.27429      -16.39127       -9.55546
C         35.67385      -16.59499       -9.56926
H         34.32450      -13.21877       -8.25346
H         36.06073      -17.55393       -9.89629
C         32.29268      -14.87119       -8.87797
C         33.39467      -17.57303       -9.97572
C         33.34441      -18.75657       -9.02157
H         33.70377      -17.90636      -10.98990
H         32.34387      -17.29370      -10.04796
C         31.31153      -15.13846       -9.85494
C         31.86389      -14.40169       -7.62033
C         29.94678      -15.03038       -9.55168
C         29.53260      -14.64460       -8.26745
C         28.07467      -14.69857       -7.86495
C         27.51212      -13.36935       -7.39467
C         27.08770      -13.08747       -6.05054
C         27.01407      -14.10136       -4.93313
H         31.59435      -15.46577      -10.84731
H         29.21702      -15.29673      -10.30605
C         27.42308      -12.36049       -8.37144
C         26.67577      -11.76832       -5.75406
C         26.60652      -10.78391       -6.74101
C         26.95071      -11.08070       -8.06091
H         26.34979      -11.49849       -4.75802
H         26.24294       -9.79634       -6.48274
H         27.71177      -12.58335       -9.39267
H         22.81463       -7.57115      -10.28191
C         26.76713      -10.04877       -9.14958
H         26.96175      -10.50140      -10.14666
H         25.69996       -9.79596       -9.10667
C         26.81543      -15.98522       -2.79826
C         26.47004      -16.34251       -4.11042
C         27.26556      -14.67587       -2.56191
C         27.35033      -13.74492       -3.60873
C         26.55388      -15.41597       -5.15469
H         27.70247      -12.74775       -3.37892
H         27.55058      -14.36995       -1.56320
H         26.13276      -17.34687       -4.33231
H         26.22764      -15.73817       -6.13348
C         26.76477      -17.00959       -1.67097
C         43.65568      -18.39949       -8.19060
C         42.50429      -19.14062       -8.80547
H         43.45910      -17.30655       -8.24732
H         43.69845      -18.69708       -7.11982
C         42.64802      -19.94214       -9.87903
C         43.97305      -20.23751      -10.51926
H         43.92793      -19.92407      -11.58457
H         44.09468      -21.34008      -10.45549
C         41.41646      -20.57012      -10.47086
C         40.53604      -21.10566       -9.35356
C         41.17564      -19.04917       -8.13146
C         40.20512      -19.97913       -8.36678
C         38.88004      -19.96681       -7.64116
C         38.48834      -18.90353       -6.79039
C         37.23390      -18.89731       -6.17098
C         36.34292      -19.95551       -6.37521
C         36.73241      -21.03223       -7.17761
C         37.97483      -21.03988       -7.79854
C         34.95340      -19.94696       -5.79252
C         33.97558      -19.93710       -6.96006
H         34.77632      -19.05242       -5.15666
H         34.90736      -20.84428       -5.15624
H         36.05774      -21.86455       -7.34149
H         38.19289      -21.90381       -8.40313
H         39.11796      -18.04814       -6.60800
H         36.95092      -18.05408       -5.55308
H         41.05586      -18.26649       -7.39618
C         32.49278      -19.81999       -9.34094
C         32.35134      -20.91180       -8.48495
C         33.06261      -20.99512       -7.26988
C         34.07839      -18.82921       -7.83108
H         34.75880      -18.03147       -7.56999
H         31.90927      -19.79253      -10.25368
H         31.64921      -21.68284       -8.77352
C         32.80159      -22.18283       -6.38349
C         32.74785      -22.04728       -4.98355
C         32.48196      -23.14219       -4.16142
C         32.25586      -24.41469       -4.70712
C         32.53740      -23.45818       -6.93034
C         32.27361      -24.55920       -6.10395
H         32.54933      -23.61651       -8.00068
H         32.88108      -21.08543       -4.50887
H         32.45233      -22.99011       -3.08971
H         32.07685      -25.51770       -6.56288
C         31.97308      -25.58008       -3.77552
H         30.15184       -0.60284       -6.49531
H         32.46351        0.05426       -6.92729
H         23.87502       -0.93879       -5.44692
C         30.79334       -0.35645       -5.65843
H         24.28389        1.16284       -6.71681
C         32.11389        0.02201       -5.90323
H         28.72943       -1.86381       -4.48672
C         22.06876        0.22060       -5.35584
C         23.55724        0.03707       -5.01855
C         24.44818        1.13650       -5.61768
C         26.49099       -0.12818       -4.65479
N         25.86073        0.91274       -5.37455
C         26.89359        1.73165       -5.87283
C         28.10810        1.20609       -5.48475
C         28.86632       -0.83507       -4.09023
N         27.88813        0.04206       -4.71274
H         25.99065       -0.93838       -4.14108
C         30.29835       -0.41570       -4.34687
H         26.75202        2.61948       -6.47498
H         29.06722        1.61719       -5.74054
C         32.98110        0.32869       -4.84084
C         34.43516        0.66733       -5.14015
H         23.68756       -0.00039       -3.91509
H         24.17650        2.12541       -5.19418
H         28.66568       -0.86177       -2.99706
C         31.15823       -0.10604       -3.28038
C         32.48905        0.25255       -3.52364
H         30.80529       -0.15318       -2.25763
H         33.13418        0.47030       -2.68219
H         35.17437       -0.49742       -3.43553
H         34.88899       -1.44581       -4.92649
H         15.30179        2.41513      -11.73050
C         12.57430        2.62480      -11.37204
C         14.99391        2.42098      -10.66233
C         13.58498        1.82155      -10.54502
H         13.60413        0.77178      -10.91220
C         17.35657        2.02040       -9.81968
C         17.99551        1.11954       -8.98531
H         19.04798        1.12097       -8.73336
N         15.98408        1.69138       -9.89028
H         13.26937        1.82997       -9.47848
H         14.97225        3.47406      -10.30622
H         18.60932       -4.04005      -10.68517
C         18.89310       -3.53995       -9.77867
H         17.03650       -2.45697       -9.80230
C         17.97522       -2.60805       -9.28299
C         15.80613        0.55529       -9.06940
N         17.04389        0.19502       -8.50614
H         14.87130        0.04222       -8.88605
C         21.20067       -4.78415       -9.62031
C         20.12789       -3.77811       -9.12388
C         18.26485       -1.87290       -8.13026
C         17.28555       -0.88331       -7.57567
H         16.33679       -1.40530       -7.32463
C         20.40828       -2.98792       -7.98124
C         19.48736       -2.06085       -7.48863
H         21.34779       -3.07203       -7.45359
H         19.73142       -1.48465       -6.60488
H         50.00852        9.91220      -17.02001
H         52.06452        9.09009      -15.79520
C         49.72134       10.50219      -16.12223
C         51.77274        9.67595      -14.89816
H         47.85493       11.14765      -17.01576
H         50.17090       11.51607      -16.20381
C         48.20199       10.64175      -16.09003
H         47.72308        9.64129      -16.03077
C         50.24335        9.80596      -14.85885
H         49.79012        8.79305      -14.78577
H         54.49362        9.08658      -14.16418
C         53.69656        8.81062      -13.48598
H         47.88819       11.24959      -15.21468
N         52.32080        9.02789      -13.71992
H         54.79868        7.92186      -11.79962
C         53.85737        8.20205      -12.25306
H         49.94968       10.40303      -13.96736
H         52.21674       10.69221      -14.98063
H         52.28912        2.96334      -11.46039
H         51.54717        5.25750      -11.76016
H         50.57322        8.54555      -12.42480
C         52.72704        3.71934      -10.82824
C         52.29289        5.03959      -11.00517
C         51.64262        8.52209      -12.58725
N         52.58523        8.01596      -11.67244
C         54.18627        1.96174       -9.56014
C         53.68645        3.39250       -9.84083
H         51.21194        7.50432      -10.16269
C         52.80255        6.06879      -10.20281
C         52.30674        7.48630      -10.35496
C         54.19857        4.44365       -9.05490
C         53.76351        5.75930       -9.23115
H         54.93953        4.24883       -8.29102
H         54.17353        6.53617       -8.59777
H         52.78886        8.15048       -9.60534
H         16.07271      -18.87926       -4.86780
C         14.99715      -21.29380       -5.66423
C         16.77504      -19.73631       -4.77024
C         16.43362      -20.78627       -5.83410
H         16.55045      -20.33166       -6.84275
H         17.88253      -17.10804       -5.36157
C         18.54514      -17.95128       -5.21616
N         18.13515      -19.27074       -4.93138
H         20.51028      -17.04305       -5.52399
C         19.92701      -17.92135       -5.29616
H         17.13445      -21.64490       -5.74645
H         16.66092      -20.17141       -3.75399
H         24.00658      -16.08639       -3.09897
H         22.56276      -17.03911       -4.77011
H         19.33885      -21.10802       -4.63483
C         23.80429      -17.14637       -3.04407
C         22.95958      -17.69313       -4.01009
C         19.30647      -20.04484       -4.83515
N         20.42952      -19.22315       -5.05351
C         25.38326      -17.37800       -1.03246
C         24.39888      -17.95397       -2.05268
H         22.24410      -19.45932       -6.09066
C         22.66997      -19.06358       -4.01126
C         21.80666      -19.67938       -5.09304
C         24.08682      -19.32393       -2.03945
C         23.23737      -19.87272       -3.00976
H         24.52239      -19.97808       -1.29492
H         23.03718      -20.93656       -2.98705
H         21.81122      -20.78497       -4.97335
H         48.59745      -31.13463      -19.37915
H         50.21243      -29.97049      -17.84855
C         48.26267      -30.14946      -19.77167
C         49.88463      -28.97903      -18.23029
H         46.72146      -31.04989      -20.99953
H         48.88862      -29.88474      -20.65166
C         46.80818      -30.26824      -20.21578
H         46.16501      -30.55400      -19.35610
C         48.42275      -29.08167      -18.68404
H         47.78963      -29.35611      -17.81162
H         52.25598      -28.21069      -16.79782
C         51.31795      -27.72761      -16.55762
H         46.45198      -29.30266      -20.63354
N         50.08180      -27.99701      -17.18063
C         51.13212      -26.76277      -15.58725
H         48.09032      -28.09768      -19.08207
H         50.52195      -28.70625      -19.09947
H         50.79597      -24.55356      -10.43892
H         49.18825      -25.60047      -11.95955
C         50.87889      -24.36403      -11.50184
C         49.96057      -24.96122      -12.36868
C         49.13107      -27.15568      -16.56019
C         52.92094      -22.93573      -11.05635
C         51.90411      -23.54509      -12.00407
C         50.05511      -24.75252      -13.75284
C         49.09662      -25.42821      -14.70044
C         51.06310      -23.91594      -14.25457
H         21.69892       -5.16121       -7.53705
H         21.00992       -6.55326       -8.26574
H         27.40622      -16.64555       -0.83813
H         27.26503      -17.93246       -2.03808
H         53.15845      -21.05627      -12.13743
H         53.64091      -20.95903      -10.41994
H         54.31901        0.55114       -7.94831
H         54.32645        2.24149       -7.40670
H         29.47160        3.83442       -5.37857
H         31.69991        3.63611       -6.35511
H         22.27986        6.38319       -0.23731
H         23.93018        7.92903        0.81954
H         24.73327        6.19043       -0.79964
C         30.31510        3.66854       -4.72124
H         26.35077        7.79322        0.20082
C         31.58842        3.55063       -5.28172
H         27.99220        3.74836       -3.57891
C         22.54243        6.28099        0.83778
C         23.93399        6.85261        1.09840
C         24.99637        6.11143        0.27838
H         21.79171        6.83667        1.43824
C         26.39176        6.72031        0.48873
C         27.28279        4.96375       -1.17972
N         27.41356        6.07149       -0.31542
C         28.76177        6.48171       -0.40364
C         29.42596        5.66582       -1.30515
C         28.72931        3.62410       -2.75621
N         28.51733        4.69829       -1.80139
H         26.37505        4.40178       -1.35683
C         30.12550        3.56054       -3.33415
H         29.19585        7.31164        0.13866
H         30.46833        5.75985       -1.57527
C         32.71037        3.35860       -4.46242
C         34.10351        3.31406       -5.08525
H         22.50360        5.20786        1.12129
H         24.16759        6.76508        2.18174
H         25.00676        5.03933        0.57403
H         26.67576        6.65288        1.56153
H         28.51260        2.65520       -2.25690
C         31.24182        3.36225       -2.51057
C         32.52229        3.28589       -3.06450
H         31.12245        3.27656       -1.43753
H         33.36157        3.15844       -2.39500
C         34.91078        2.05287       -4.62783
H         34.56719        0.66905       -6.24350
H         36.70380      -13.60455       -8.30679
H         37.61237      -15.00586       -6.54204
H         40.84130      -19.77390      -10.99467
H         41.66993      -21.35398      -11.21738
H         41.06819      -21.92159       -8.81779
H         39.63833      -21.50985       -9.85776
H         28.08341      -15.46119       -7.07768
H         27.43918      -15.08039       -8.69382
H         45.78294      -21.33561      -11.88421
H         47.33052      -21.73686      -11.11017
H         47.19519      -20.40359      -12.32854
C         53.79453        0.83087      -10.56713
H         52.53945        3.16280      -15.31367
H         52.89974        1.11515      -14.01869
H         52.02710       10.67320      -20.31444
H         52.66455        8.67286      -21.67688
H         52.51097        8.43394      -19.18488
C         53.30100        3.15317      -14.54392
H         53.14139        6.45045      -20.57546
C         53.50933        1.98366      -13.80365
H         52.76007        5.92309      -14.80965
C         53.02370       10.61193      -20.80142
C         53.42012        9.15423      -21.01817
C         53.50265        8.39571      -19.68751
H         52.97287       11.13307      -21.78085
C         53.89807        6.92891      -19.91622
C         53.76530        6.59430      -17.35724
N         53.98583        6.16526      -18.68391
C         54.31649        4.79615      -18.60401
C         54.29666        4.40290      -17.27781
C         53.79940        5.59879      -15.03209
N         53.95434        5.51388      -16.47348
H         53.49431        7.59578      -17.05368
C         54.05673        4.30700      -14.28303
H         54.54503        4.16045      -19.44930
H         54.50649        3.40779      -16.92363
C         54.45723        1.95082      -12.76331
C         54.59650        0.70016      -11.90494
H         53.77423       11.12606      -20.16406
H         54.40798        9.12371      -21.52771
H         54.88494        6.89340      -20.42690
H         54.48692        6.38722      -14.66018
C         55.02559        4.26744      -13.26688
C         55.21658        3.10762      -12.50964
H         55.61598        5.14494      -13.03480
H         55.94967        3.12198      -11.71490
H         34.96156        2.03041       -3.51907
H         35.95630        2.17487       -4.98756
C         20.84929       -5.50796      -10.96886
H         22.06257       -4.11504       -9.84517
H         20.21043       -7.14070      -15.67533
H         20.98310       -7.25242      -13.35778
H         15.73858       -3.67305      -23.39593
H         16.01434       -1.55934      -22.08354
H         16.72679       -3.73099      -21.04433
C         19.54091       -6.83078      -14.88257
H         17.00656       -1.61194      -19.74535
C         19.98048       -6.89705      -13.55738
H         18.54225       -6.68402      -17.30316
C         14.85433       -3.14296      -22.98220
C         15.25607       -2.30913      -21.76882
C         15.83299       -3.19374      -20.65751
H         14.43719       -2.47958      -23.76887
C         16.23833       -2.35433      -19.43754
C         16.95207       -4.55787      -18.29030
N         16.77378       -3.15782      -18.35270
C         17.21652       -2.64747      -17.11397
C         17.64217       -3.69649      -16.31914
C         17.77708       -6.26969      -16.61120
N         17.47801       -4.91023      -17.03252
H         16.71277       -5.26320      -19.07509
C         18.25475       -6.35554      -15.18066
H         17.22014       -1.60119      -16.83710
H         18.03679       -3.59563      -15.31743
C         19.14098       -6.48844      -12.50303
C         19.62516       -6.50237      -11.05753
H         14.08108       -3.88890      -22.69954
H         14.35890       -1.77202      -21.39042
H         15.06384       -3.93652      -20.35134
H         15.34669       -1.80555      -19.06323
H         16.86110       -6.89118      -16.70537
C         17.40842       -5.96729      -14.13031
C         17.84759       -6.02877      -12.80625
H         16.40969       -5.60478      -14.34038
H         17.17755       -5.70763      -12.01860
H         21.74380       -5.98660      -11.41145
H         20.63269       -4.65383      -11.65022
C         30.50346      -14.29794       -7.31683
H         32.58112      -14.18387       -6.83870
H         30.20704      -13.99922       -6.31865
C         33.04750      -26.70577       -3.68283
H         31.86651      -25.18532       -2.74045
H         30.98591      -26.01695       -4.04074
H         17.82544        2.84865      -10.33467
C         33.15216      -27.55292       -4.97740
C         33.78745      -28.97905       -4.86367
H         32.10257      -27.73637       -5.30208
H         33.64815      -26.96143       -5.77028
H         31.87604      -32.26111       -7.60595
H         32.34059      -31.25521       -5.42440
H         32.62117      -35.57670      -16.28892
H         35.06712      -35.21136      -15.91247
H         33.44020      -34.40658      -14.18417
C         32.50185      -31.37880       -7.56073
H         35.88915      -34.07262      -13.81737
C         32.76623      -30.80509       -6.31244
H         32.00037      -32.28039       -9.93764
C         33.18254      -34.83063      -16.89116
C         34.40697      -34.34151      -16.12223
C         34.00157      -33.67274      -14.80375
H         33.50512      -35.31070      -17.83904
C         35.23557      -33.19680      -14.02218
C         33.61761      -32.34740      -12.19840
N         34.89418      -32.57192      -12.75657
C         35.82580      -32.07651      -11.81997
C         35.14345      -31.57752      -10.72424
C         32.63045      -31.37683      -10.08740
N         33.75285      -31.74090      -10.93530
H         32.67158      -32.60886      -12.65417
C         33.00292      -30.79664       -8.73937
H         36.90079      -32.09326      -11.94237
H         35.60966      -31.14191       -9.85419
C         33.55974      -29.65252       -6.21291
H         32.51197      -33.97890      -17.13375
H         34.96300      -33.61533      -16.75436
H         33.34497      -32.80205      -15.02283
H         35.80347      -32.46732      -14.63951
H         32.01608      -30.62712      -10.63038
C         33.79640      -29.64562       -8.64183
C         34.08760      -29.09088       -7.39461
H         34.18431      -29.16954       -9.53368
H         34.69916      -28.19903       -7.36010
H         53.94874       -0.15029      -10.06693
H         52.70874        0.86679      -10.77828
H         55.29697        1.98660       -9.58141
C         24.79483      -16.16837       -0.26653
H         25.63909      -18.15890       -0.29272
H         20.87616      -13.30433       -1.49943
H         22.21161      -15.34093       -1.38377
H         18.24695       -4.24961        0.75459
H         20.67098       -4.12538        1.35239
H         19.72657       -6.31313        0.54624
C         21.34053      -13.57525       -0.55925
H         22.15394       -6.16080        1.10488
C         22.10936      -14.73921       -0.48968
H         19.90184      -11.36870       -0.48638
C         18.56377       -4.16275        1.81584
C         19.97594       -4.71208        1.99169
C         20.04359       -6.19331        1.60567
H         18.54268       -3.09158        2.10700
C         21.46970       -6.73591        1.76558
C         20.56203       -9.03881        1.02622
N         21.57626       -8.14420        1.43410
C         22.76806       -8.89570        1.49578
C         22.49248      -10.20522        1.15345
C         20.34532      -11.51347        0.52276
N         21.10852      -10.32583        0.86949
H         19.51678       -8.79490        0.88943
C         21.17265      -12.77331        0.57534
H         23.73860       -8.50458        1.77144
H         23.22262      -11.00201        1.11701
C         22.74338      -15.13027        0.71087
C         23.58032      -16.42429        0.70076
H         17.84885       -4.72083        2.45732
H         20.27984       -4.59057        3.05458
H         19.35358       -6.76907        2.26124
H         21.79584       -6.59772        2.81968
H         19.51200      -11.62968        1.24857
C         21.77589      -13.15871        1.77917
C         22.55724      -14.31050        1.84888
H         21.65077      -12.55309        2.66860
H         23.00709      -14.52524        2.80495
H         24.53165      -15.43594       -1.05340
H         25.58508      -15.64889        0.31741
C         54.35211      -23.42907      -11.39833
H         52.69008      -23.23650      -10.01286
H         57.75065      -26.42727      -14.59305
H         55.47160      -26.28873      -13.70724
H         67.20749      -26.68787      -15.28582
H         67.03018      -27.64434      -12.98138
H         64.95328      -26.82604      -14.12193
C         57.58583      -25.92806      -13.64650
H         64.79124      -27.81090      -11.82835
C         56.28317      -25.85019      -13.14002
H         60.03669      -25.83938      -14.54901
C         67.59864      -26.12972      -14.40835
C         66.86547      -26.55620      -13.13931
C         65.36274      -26.27374      -13.24758
H         68.68231      -26.34816      -14.30393
C         64.62115      -26.72289      -11.97910
C         62.44385      -25.90188      -13.09607
N         63.19026      -26.48540      -12.05012
C         62.26148      -26.81245      -11.03875
C         60.99389      -26.44104      -11.45235
C         60.03911      -25.30108      -13.57662
N         61.08280      -25.86461      -12.74069
H         62.84448      -25.52528      -14.02820
C         58.65481      -25.31953      -12.96607
H         62.50739      -27.27887      -10.09370
H         60.08975      -26.57068      -10.87870
C         56.02694      -25.17646      -11.93463
C         54.59636      -24.97657      -11.45253
H         67.47015      -25.04018      -14.58260
H         67.28937      -26.00135      -12.27404
H         65.20711      -25.18272      -13.39953
H         65.03086      -26.17513      -11.10261
H         60.29711      -24.23945      -13.78138
C         58.40442      -24.66997      -11.74933
C         57.11050      -24.61224      -11.23087
H         59.20973      -24.18605      -11.21060
H         56.95500      -24.08365      -10.30020
H         55.03790      -22.96737      -10.65707
H         54.62352      -23.01963      -12.39692
C         51.97964      -23.31907      -13.39035
H         51.14719      -23.73911      -15.31990
H         52.75498      -22.69192      -13.80936
N         49.76581      -26.38234      -15.57010
H         51.91086      -26.37471      -14.94500
H         48.59118      -24.65076      -15.31305
H         48.31442      -25.97583      -14.13146
H         48.07508      -27.11104      -16.79196
C         21.45751        1.48204       -4.74618
H         21.51541       -0.65541       -4.95448
H         21.93268        0.23901       -6.45945
H         21.56767        1.46641       -3.64113
H         20.37622        1.52276       -4.99528
H         21.93300        2.39818       -5.15118
C         11.17505        2.02498      -11.26580
H         12.88223        2.62715      -12.44041
H         12.54358        3.67482      -11.00730
H         11.17280        0.98144      -11.64688
H         10.46510        2.62598      -11.87225
H         10.83188        2.02844      -10.20926
C         14.65163      -22.33835       -6.72180
H         14.28598      -20.44383       -5.75366
H         14.88136      -21.75189       -4.65767
H         14.73531      -21.90044       -7.73926
H         13.60923      -22.69006       -6.57074
H         15.33555      -23.21019       -6.64208
H         43.09199      -28.22006        2.27121
H         42.52351      -28.30061        4.68924
H         42.35426      -27.95631       -0.14922
C         42.02445      -28.23076        2.58177
C         41.91488      -27.67878        3.99979
H         40.87019      -28.34309       -2.64695
H         41.66130      -29.28172        2.57758
H         42.28911      -26.63351        4.03736
C         41.29184      -27.95943        0.17795
H         40.92447      -29.00880        0.18086
C         40.38590      -27.51256       -2.15042
C         41.19505      -27.39557        1.60172
H         41.56731      -26.34740        1.60859
N         40.50815      -27.20045       -0.77806
H         40.85765      -27.70016        4.34078
C         39.54437      -26.59249       -2.74780
H         39.25584      -26.57657       -3.79089
H         40.13063      -27.40771        1.92516
C         39.71803      -26.05008       -0.55814
N         39.11387      -25.67104       -1.76864
H         39.57717      -25.54288        0.38704
C         38.20832      -24.56507       -1.97437
H         38.64691      -23.88696       -2.73852
H         36.93053      -24.15506       -4.36021
C         36.87135      -25.09182       -2.41182
C         36.36813      -24.78340       -3.68038
C         36.12462      -25.91482       -1.55409
C         35.14088      -25.29916       -4.09169
H         38.07810      -23.98440       -1.03545
H         36.50207      -26.16291       -0.56971
H         34.79750      -25.05251       -5.08494
C         34.88974      -26.42573       -1.96179
C         34.38344      -26.12843       -3.23929
H         34.33384      -27.06097       -1.28357
H         32.65074      -27.38892       -2.89791
H         54.26080        8.88363      -19.03623
C         56.06905        0.18103      -11.69423
H         54.06566       -0.13244      -12.42101
C         56.74779       -0.35659      -12.99119
H         56.00383       -0.68575      -11.00305
H         56.70004        0.94364      -11.19488
H         62.24910        3.36068      -17.50464
H         62.22697        5.04552      -19.90116
C         61.24693        3.76250      -17.56476
H         62.45107        7.03353      -21.46728
H         60.11861        2.38071      -16.29009
C         61.76614        5.69936      -19.12983
C         60.12971        3.25323      -16.92911
N         60.86836        4.89895      -18.31857
H         55.70827       -0.13551      -15.52948
H         62.57112        6.10607      -18.48051
C         62.00059        7.68537      -20.68742
C         56.35056        0.69476      -15.26389
H         56.09131        1.64879      -17.16390
C         56.57002        1.71235      -16.19512
H         60.23372        6.45567      -20.47002
C         61.04118        6.86336      -19.82283
N         59.00543        4.05622      -17.26190
C         56.96107        0.75015      -14.00148
C         59.48476        5.05982      -18.11928
H         62.81391        8.10141      -20.05400
C         61.26518        8.83593      -21.36940
H         60.45604        8.44386      -22.02228
C         57.39698        2.80092      -15.87602
C         57.79501        1.84027      -13.69025
H         57.01628        3.75507      -17.77689
C         57.62333        3.91601      -16.86030
C         58.00448        2.85767      -14.61505
H         58.86386        5.83619      -18.55284
H         60.59150        7.52398      -19.04893
H         58.27992        1.90978      -12.72506
H         58.64191        3.69132      -14.34840
H         60.82197        9.51482      -20.60970
H         57.28175        4.86229      -16.38503
H         60.46910      -30.34445       -5.90330
H         62.60519      -32.17390       -6.34469
C         60.57704      -30.36800       -6.97986
H         64.81468      -33.26477       -6.56061
H         58.65428      -29.57137       -7.63394
C         62.90920      -31.35373       -7.03060
C         59.62541      -29.96387       -7.89633
N         61.71493      -30.83168       -7.67028
H         55.06387      -29.41504      -11.66894
H         63.37745      -30.54557       -6.42662
C         65.14564      -32.49602       -7.29284
C         55.85160      -29.00321      -11.06834
H         57.24732      -30.46488      -11.79238
C         57.11288      -29.61048      -11.14031
H         63.43610      -32.73709       -8.60481
C         63.92728      -31.92266       -8.02801
N         60.14289      -30.13083       -9.20648
C         55.62396      -27.90539      -10.21631
C         61.42850      -30.68817       -9.04653
H         65.66675      -31.68212       -6.74271
C         66.12148      -33.15152       -8.26520
H         65.62412      -33.99027       -8.79828
C         58.19177      -29.11181      -10.39253
H         66.98970      -33.55689       -7.70379
C         56.71547      -27.42230       -9.46500
H         59.51954      -30.65245      -11.14290
C         59.56216      -29.75445      -10.48932
C         57.98157      -27.99395       -9.57602
H         62.09820      -30.93286       -9.86057
H         64.26078      -31.12745       -8.73015
H         56.60772      -26.58805       -8.78902
H         58.79595      -27.57555       -8.99791
H         66.48789      -32.41198       -9.00784
H         60.24592      -29.02894      -10.97076
C         54.30948      -25.66460      -10.09546
H         53.89212      -25.39570      -12.20215
C         54.25411      -27.23750      -10.05328
H         53.30304      -25.33849       -9.76473
H         54.99451      -25.25786       -9.32670
H         40.43015      -35.34903       -8.57287
H         39.97870      -37.63602      -10.29924
C         39.37728      -35.30692       -8.81911
H         39.85174      -39.13254      -12.31289
H         38.59334      -33.99448       -7.24786
C         39.47153      -36.81919      -10.85708
C         38.41159      -34.59719       -8.12663
N         38.77080      -35.97652       -9.90369
H         34.39861      -32.81184       -4.24925
H         40.24557      -36.20821      -11.37072
C         39.32777      -38.33158      -12.87884
C         35.05162      -32.59140       -5.07921
H         34.44451      -34.37690       -6.09440
C         35.07250      -33.49647       -6.14382
H         37.77465      -38.06286      -11.38884
C         38.53984      -37.44391      -11.90697
N         37.15998      -34.79140       -8.75960
C         35.84188      -31.42470       -5.10621
C         37.39787      -35.65268       -9.84848
H         40.08610      -37.71877      -13.41352
C         38.40626      -38.98496      -13.90505
H         37.65519      -39.62568      -13.39541
C         35.87724      -33.26131       -7.26688
H         39.00522      -39.62011      -14.59157
C         36.64495      -31.19376       -6.24008
H         35.16025      -35.07067       -8.22464
C         35.86107      -34.23274       -8.42770
C         36.65948      -32.09667       -7.30798
H         36.63844      -35.99077      -10.54152
H         38.03052      -36.63786      -12.47993
H         37.26498      -30.30789       -6.29986
H         37.28403      -31.88737       -8.16769
H         37.88064      -38.21083      -14.50344
H         35.47706      -33.69847       -9.31338
C         35.28989      -29.01094       -4.46023
H         33.21603      -29.50664       -4.07044
C         35.85077      -30.39122       -3.97911
H         35.45458      -28.34604       -3.60356
H         35.90735      -28.59329       -5.28343
H         20.72880      -25.68812        1.53964
H         19.17982      -27.13562        3.45929
C         20.22311      -24.92182        2.11201
H         17.46788      -28.45636        4.69516
H         21.48197      -23.15965        1.73979
C         18.41379      -26.40794        3.11328
C         20.61830      -23.59670        2.22042
N         19.06799      -25.12744        2.89931
H         23.37936      -19.24737        4.94940
H         17.99454      -26.76818        2.14915
C         16.67992      -27.72245        4.41793
C         22.86819      -19.54401        4.05113
H         21.46790      -20.55371        5.28660
C         21.73781      -20.31413        4.26443
H         17.77082      -25.99722        5.13926
C         17.31285      -26.34443        4.18621
N         19.70244      -22.91870        3.05796
C         23.28735      -19.16624        2.74881
C         18.75085      -23.87418        3.46211
H         16.18445      -28.06621        3.48410
C         15.65101      -27.67621        5.54561
H         16.13684      -27.36775        6.49651
C         20.95744      -20.75513        3.19647
H         15.20846      -28.68470        5.68878
C         22.50107      -19.62375        1.66876
H         19.58535      -21.58280        4.62408
C         19.70249      -21.54420        3.51794
C         21.34867      -20.41010        1.88907
H         17.93210      -23.67389        4.14122
H         16.52204      -25.62562        3.87956
H         22.77144      -19.37445        0.65391
H         20.75530      -20.73540        1.04423
H         14.83760      -26.96010        5.30344
H         18.80823      -21.01810        3.12296
C         24.04958      -16.81195        2.15426
H         22.88319      -17.18466        0.29974
C         24.52797      -18.24933        2.52950
H         23.21427      -16.64355        2.86701
H         24.84009      -16.07340        2.41253
H         11.38053       -5.56661       -9.95383
H          9.06615       -6.37235       -8.41286
C         11.77655       -5.95310       -9.02389
H          7.05443       -6.39829       -6.91218
H         13.84574       -6.42404       -9.57090
C          9.63909       -5.77575       -7.66965
C         13.06650       -6.40598       -8.82067
N         11.04762       -6.08873       -7.82352
H         15.99143       -9.72038      -10.45576
H          9.48358       -4.69669       -7.88618
C          7.61151       -5.79827       -6.15953
C         16.22807       -9.02043       -9.69531
H         14.24551       -9.15064       -8.90401
C         15.21915       -8.68687       -8.79892
H          9.27162       -7.18334       -6.06075
C          9.10932       -6.10208       -6.26676
N         13.19509       -6.83820       -7.47699
C         17.50776       -8.45625       -9.61095
C         11.94614       -6.61613       -6.86983
H          7.43275       -4.71943       -6.35940
C          7.08106       -6.14141       -4.77075
H          7.22986       -7.22166       -4.55724
C         15.45557       -7.76342       -7.77686
H          5.99510       -5.91613       -4.72086
C         17.74017       -7.53029       -8.56266
H         14.03351       -8.38376       -6.33639
C         14.34483       -7.43010       -6.81528
C         16.72588       -7.18818       -7.66046
H         11.71188       -6.85891       -5.84179
H          9.66325       -5.49938       -5.51390
H         18.69970       -7.06587       -8.40997
H         16.93668       -6.47911       -6.86957
H          7.60636       -5.54117       -3.99773
H         14.68902       -6.74197       -6.01340
C         19.87821       -7.97736      -10.60028
H         18.81793       -6.10424      -10.43012
C         18.58630       -8.88897      -10.62480
H         20.31927       -8.03741       -9.59369
H         20.63863       -8.40516      -11.28860
H         35.54860       13.10214       -0.14564
H         36.05958       13.23175        2.74927
C         35.95480       12.13571        0.12146
H         37.18330       13.63171        5.00592
H         35.29346       10.86354       -1.55458
C         37.00998       12.82069        2.34463
C         35.82258       10.96609       -0.61675
N         36.69360       11.86321        1.29687
H         33.24495        6.07358       -2.32809
H         37.59761       13.65301        1.90162
C         38.13092       13.22694        4.58852
C         34.10695        6.71228       -2.47956
H         34.24991        7.08701       -0.38988
C         34.68732        7.28799       -1.36033
H         37.22765       11.36523        3.95054
C         37.81507       12.19532        3.49891
N         36.47727        9.92480        0.07704
C         34.67389        6.86875       -3.76056
C         37.01534       10.49320        1.24448
H         38.71631       14.06458        4.15133
C         38.94152       12.60192        5.72258
H         38.37330       11.77262        6.19556
C         35.84762        8.05766       -1.47842
H         39.15653       13.36990        6.49543
C         35.82476        7.66808       -3.89444
H         36.08224        7.99207        0.65825
C         36.54102        8.51098       -0.21254
C         36.39773        8.27752       -2.75798
H         37.55667        9.93882        2.00042
H         38.77006       11.78928        3.09837
H         36.30769        7.77625       -4.85667
H         37.30890        8.85243       -2.86471
H         39.90640       12.20807        5.33739
H         37.60089        8.17982       -0.25391
C         34.87122        4.59040       -4.64686
H         34.03782        3.33133       -6.19464
C         34.12308        5.95457       -4.85159
H         35.88377        4.64156       -5.10357
H         35.03387        4.44365       -3.55457
H         61.97645        9.41586      -21.99378
H         66.85640       -3.21579      -10.24077
H         68.63630       -5.25363      -11.24658
C         66.25822       -3.80011      -10.92779
H         64.21446       -3.43166      -10.19991
C         68.19119       -4.86359      -12.18847
C         64.87682       -3.91168      -10.90742
N         66.77506       -4.62197      -11.95337
H         59.11226       -4.20955      -10.16170
H         68.68742       -3.90116      -12.43854
C         69.96841       -6.14435      -13.46192
C         59.84568       -3.98849      -10.92725
H         61.15314       -5.54426      -10.24904
C         61.01739       -4.75266      -10.97543
H         67.95838       -6.84192      -13.06786
C         68.46205       -5.88058      -13.31083
N         64.47039       -4.78020      -11.94418
C         59.60159       -2.97000      -11.86653
C         65.65568       -5.21635      -12.57736
C         70.25318       -7.14640      -14.57863
H         69.75505       -8.11660      -14.36734
C         61.98437       -4.52873      -11.96930
H         71.34794       -7.32077      -14.65302
C         60.60292       -2.72025      -12.84009
H         63.13721       -6.22125      -11.27048
C         63.18847       -5.44594      -12.06468
C         61.77334       -3.49572      -12.89222
H         65.69703       -5.97174      -13.35137
H         68.05552       -5.48685      -14.26782
H         60.48965       -1.95417      -13.59156
H         62.50232       -3.30657      -13.67084
H         69.89066       -6.75340      -15.55208
H         63.14642       -5.98211      -13.03778
C         58.13397       -1.05853      -12.81067
H         56.05756       -1.12224      -13.41093
C         58.25520       -2.22568      -11.80433
H         58.91006       -0.31842      -12.52146
H         58.37645       -1.45440      -13.82145
Cl        56.95215       -3.42141      -12.08749
H         58.12637       -1.80494      -10.78381
H         57.58012      -34.73925      -13.81585
H         57.41250      -37.66200      -14.25797
C         56.53934      -34.99561      -13.67037
H         57.19912      -39.87000      -15.55144
H         55.77774      -33.24792      -12.57217
C         56.59761      -37.23139      -14.87969
C         55.59540      -34.21349      -13.02407
N         55.92772      -36.18708      -14.12145
H         52.50580      -31.35113       -9.05860
H         57.05048      -36.76753      -15.78255
C         56.41140      -39.39599      -16.17678
C         52.68705      -31.49338      -10.11369
H         52.82652      -33.61953       -9.84829
C         52.86799      -32.80773      -10.56427
H         55.18786      -38.84830      -14.46514
C         55.65152      -38.35155      -15.34535
N         54.35957      -34.89801      -13.03232
C         52.66315      -30.41202      -11.02242
C         54.58066      -36.11637      -13.70656
H         56.89762      -38.90053      -17.04554
C         55.47706      -40.48094      -16.70679
H         54.98439      -41.01596      -15.86784
C         53.04707      -33.07841      -11.92817
H         56.06012      -41.21448      -17.30369
C         52.88132      -30.69098      -12.38709
H         52.87709      -35.22749      -11.61391
C         53.09952      -34.50818      -12.43193
C         53.08149      -32.00559      -12.83283
H         53.82414      -36.87127      -13.88010
H         54.85069      -37.90442      -15.97478
H         52.84862      -29.89389      -13.11888
H         53.20454      -32.19329      -13.89257
H         54.69984      -40.03329      -17.36266
H         52.29057      -34.61258      -13.18785
C         53.09149      -27.74424      -10.98631
H         53.95272      -27.43090       -9.00254
C         52.24626      -28.99904      -10.60344
H         53.38712      -27.74162      -12.05677
H         52.31231      -26.95358      -10.91078
Cl        51.68915      -28.86757       -8.90024
H         51.30927      -28.87626      -11.19379
H         32.62748      -28.15329        4.93349
H         31.38704      -29.15176        7.38658
C         32.97294      -29.17453        5.02874
H         30.95736      -29.64333        9.83749
H         33.64258      -29.63049        2.98523
C         32.45178      -29.44939        7.50443
C         33.50648      -29.94926        4.00945
N         32.94490      -29.93004        6.22234
H         34.03838      -33.35418       -0.72321
H         33.03827      -28.55104        7.79600
C         32.02372      -29.93547        9.95542
C         34.52642      -32.75573        0.03608
H         33.35137      -33.61406        1.62009
C         34.13278      -32.90451        1.37610
H         31.96353      -31.39447        8.35014
C         32.55629      -30.49550        8.62788
N         33.83123      -31.22424        4.52926
C         35.57481      -31.87989       -0.30741
C         33.47708      -31.19614        5.89456
H         32.60913      -29.03528       10.24413
C         32.12699      -30.96538       11.07845
H         31.53084      -31.86957       10.83169
C         34.75849      -32.16395        2.39583
H         31.73406      -30.52948       12.02175
C         36.18717      -31.13364        0.71672
H         33.65507      -33.21238        3.94034
C         34.38920      -32.38309        3.85214
C         35.77910      -31.26629        2.04893
H         33.59965      -32.02575        6.57866
H         33.62152      -30.78700        8.75897
H         36.99174      -30.44754        0.48455
H         36.28003      -30.68735        2.81465
H         33.18624      -31.25876       11.23925
H         35.31262      -32.69691        4.38585
H         70.37150       -6.55293      -12.50898
H         70.49710       -5.19410      -13.69230
C         35.19785      -30.82146       -2.61179
H         36.91852      -30.19251       -3.73249
C         36.08799      -31.74926       -1.73754
H         34.16199      -31.19969       -2.72765
H         35.12137      -29.89661       -1.99749
Cl        36.41305      -33.37278       -2.41564
H         37.07927      -31.25034       -1.68718
H         25.39983      -16.05384       11.83659
H         24.98351      -17.23256       14.44420
C         25.81980      -17.04819       11.75968
H         25.20520      -17.89560       16.85700
H         25.85857      -17.36694        9.58636
C         26.04925      -17.48734       14.25607
C         26.06022      -17.73852       10.58116
N         26.19368      -17.85621       12.85656
H         24.95977      -21.24804        6.01717
H         26.66806      -16.58564       14.45519
C         26.26532      -18.18310       16.68411
C         25.64570      -20.56231        6.49925
H         25.35080      -21.49966        8.39396
C         25.86736      -20.70695        7.86665
H         25.81675      -19.50380       15.02431
C         26.45383      -18.61363       15.22271
N         26.61038      -19.00243       10.89916
C         26.30204      -19.56232        5.75900
C         26.68684      -19.05810       12.30555
H         26.91230      -17.30528       16.90090
C         26.62335      -19.31236       17.64779
H         25.96828      -20.19235       17.47148
C         26.75097      -19.85516        8.54411
H         26.47862      -18.96955       18.69440
C         27.18269      -18.69520        6.43396
H         26.44953      -20.99390       10.35017
C         27.00732      -20.08932       10.02197
C         27.40669      -18.84261        7.81698
H         27.05106      -19.90849       12.86737
H         27.51965      -18.88403       15.05743
H         27.70210      -17.91596        5.89108
H         28.09969      -18.17843        8.31815
H         27.68389      -19.61472       17.51634
H         28.08817      -20.29846       10.16872
C         25.39476      -18.12547        3.83646
H         25.21117      -18.66717        1.76840
C         26.03202      -19.47309        4.26403
H         24.75530      -17.70695        4.64109
H         26.21624      -17.38390        3.72459
Cl        27.51605      -19.79146        3.32235
H         25.33848      -20.29834        4.01050
H         11.41545      -14.73620       -7.88061
H          8.74845      -15.29314       -8.96847
C         11.53713      -14.70255       -8.95570
H          6.68916      -16.52635       -9.81641
H         13.43681      -13.61288       -9.17833
C          9.40551      -15.97071       -9.55579
C         12.59626      -14.11441       -9.63714
N         10.63273      -15.25941       -9.88878
H         16.33599      -10.42756      -12.67672
H          9.66193      -16.84819       -8.92279
C          7.34811      -17.20229      -10.40375
C         16.12115      -11.37706      -12.20271
H         14.11818      -11.42375      -12.97661
C         14.84984      -11.94899      -12.37537
H          8.36636      -15.58466      -11.42733
C          8.63455      -16.46000      -10.79614
N         12.39207      -14.28468      -11.02626
C         17.11703      -12.04014      -11.46146
C         11.17507      -14.98559      -11.16239
H          7.60039      -18.08594       -9.77780
C          6.58271      -17.67869      -11.63772
H          6.29381      -16.81399      -12.27261
C         14.54414      -13.21043      -11.83098
H          5.65884      -18.20992      -11.32402
C         16.79382      -13.29555      -10.89948
H         12.60617      -13.22180      -12.80722
C         13.21691      -13.88173      -12.15406
C         15.52768      -13.87211      -11.08171
H         10.73954      -15.27929      -12.10860
H          9.28201      -17.14824      -11.38267
H         17.53537      -13.85322      -10.34145
H         15.32711      -14.85247      -10.66673
H          7.20583      -18.37731      -12.23584
H         13.45653      -14.79588      -12.73888
C         18.97540      -10.38808      -10.36743
H         18.18824       -8.80043      -11.65743
C         18.55447      -11.51474      -11.36528
H         18.76701      -10.67953       -9.31475
H         20.08558      -10.43859      -10.42966
Cl        19.18201      -11.16781      -13.00528
H         19.15645      -12.38251      -11.01439
H         32.98435        7.12599      -15.40135
H         30.78925        7.83085      -17.22300
C         32.32697        7.76014      -14.82064
H         29.37404        8.99685      -18.99384
H         32.92202        7.29197      -12.74723
C         31.07187        8.81364      -16.78709
C         32.29433        7.84665      -13.43053
N         31.35554        8.63165      -15.36832
H         30.51691        7.18562       -7.61148
H         31.99368        9.17249      -17.29416
C         29.65261        9.97943      -18.55460
C         31.20251        7.62752       -8.32346
H         29.64472        7.85791       -9.76367
C         30.69857        8.01216       -9.56661
H         29.00361        9.45250      -16.55542
C         29.92998        9.81636      -17.05201
N         31.30223        8.78263      -13.06321
C         32.54555        7.86141       -7.97550
C         30.73713        9.25482      -14.26619
H         30.56634       10.35250      -19.06624
C         28.51240       10.96634      -18.80750
H         27.57513       10.60824      -18.33031
C         31.51488        8.65102      -10.51271
H         28.33553       11.06381      -19.90005
C         33.39139        8.44060       -8.94729
H         29.76090        9.04719      -11.71166
C         30.85603        9.23512      -11.75857
C         32.87767        8.83740      -10.20490
H         29.93827        9.98311      -14.32179
H         30.20482       10.80730      -16.62867
H         34.42904        8.64111       -8.71316
H         33.52723        9.33893      -10.91164
H         28.76717       11.96840      -18.40118
H         30.99486       10.33633      -11.71369
C         34.04124        6.44948       -6.33883
H         33.06983        5.78445       -4.55672
C         32.98737        7.56808       -6.53631
H         33.67539        5.58562       -6.93409
H         35.03518        6.73730       -6.74230
Cl        33.50807        9.09993       -5.77875
H         32.08190        7.23383       -5.98521
