1011
	Energy:    1971.1099299
C         22.06382       -4.94953       -8.42508
C         23.48376       -5.48115       -8.61367
C         23.83331       -6.39223       -9.62185
C         25.13554       -6.88925       -9.72858
C         24.49455       -5.06491       -7.72563
C         25.79831       -5.55528       -7.83488
H         24.27751       -4.36082       -6.93163
C         26.13792       -6.49754       -8.82398
H         25.35097       -7.57135      -10.53910
H         26.53378       -5.21731       -7.11586
C         27.53697       -7.03636       -8.88980
C         28.60077       -6.12681       -8.68360
C         29.94455       -6.52855       -8.74376
H         28.38939       -5.07906       -8.50578
C         27.86286       -8.40538       -9.14501
C         29.21029       -8.78949       -9.17576
C         30.24215       -7.87744       -8.97627
C         31.64067       -8.40815       -9.02576
H         29.46641       -9.82792       -9.35970
C         31.02597       -5.48678       -8.57544
C         32.43772       -6.01178       -8.68003
H         30.90375       -4.99867       -7.58429
H         30.88421       -4.72161       -9.36941
C         32.71344       -7.37700       -8.86549
H         31.75570       -9.17322       -8.22649
H         31.78830       -8.89846      -10.01354
C         33.50963       -5.10783       -8.59676
C         34.03682       -7.82057       -8.92440
C         35.11619       -6.92599       -8.84061
H         34.20770       -8.87851       -9.07250
C         34.83349       -5.55482       -8.69298
H         33.31876       -4.04999       -8.46217
C         36.51547       -7.44296       -8.92202
H         35.62888       -4.82548       -8.62075
C         36.81488       -8.75015       -8.48663
C         37.56276       -6.65606       -9.44182
C         38.11118       -9.24716       -8.55592
H         36.05878       -9.39685       -8.06466
C         38.85970       -7.17353       -9.54474
H         37.38106       -5.65314       -9.80344
C         39.14597       -8.46871       -9.08807
H         38.30584      -10.25281       -8.20286
H         39.63455       -6.55794       -9.97752
C         40.52766       -9.06394       -9.16493
C         41.05875       -9.33783       -7.76206
H         41.23083       -8.47582       -9.76788
H         40.42097      -10.00367       -9.75054
C         41.40397       -8.32433       -6.80664
C         41.30209       -6.83899       -7.06505
C         41.65319       -6.22448       -8.28732
C         41.43696      -11.08732       -6.06246
C         41.08305      -10.69128       -7.36643
C         41.81008      -10.09475       -5.15313
C         41.78414       -8.74591       -5.51233
C         40.78482       -6.00890       -6.04763
C         40.56658       -4.64773       -6.26507
C         41.42507       -4.85849       -8.50852
C         40.85955       -4.06426       -7.50600
H         41.67454       -4.42741       -9.47008
H         42.10304       -6.77393       -9.08942
H         40.12697       -4.05455       -5.47272
H         40.49230       -6.41577       -5.08867
H         40.76608      -11.43055       -8.08314
H         42.05593       -8.02372       -4.75343
H         42.08302      -10.36241       -4.13948
C         41.34789      -12.53533       -5.56782
C         40.50709       -2.61398       -7.74177
C         41.35429       -1.71049       -6.86259
H         39.42936       -2.59011       -7.53660
H         40.63101       -2.30676       -8.80360
C         40.68186      -13.48512       -6.56387
H         40.71684      -12.45747       -4.65517
H         42.28646      -12.95513       -5.15902
C         40.91738       -1.09760       -5.64932
C         41.87268       -0.42191       -4.86059
C         43.20140       -0.26064       -5.28888
C         42.67901       -1.53000       -7.27991
C         43.58910       -0.78267       -6.53216
H         41.57611        0.02503       -3.91901
H         43.00597       -1.96999       -8.21648
C         39.50133       -1.13466       -5.17017
C         39.18597       -1.35523       -3.81380
C         37.84971       -1.38729       -3.38679
C         36.80813       -1.17246       -4.30337
C         37.12335       -0.91950       -5.64445
C         38.44682       -0.89470       -6.06822
H         38.63929       -0.66376       -7.10757
H         39.96984       -1.52900       -3.08775
H         37.62986       -1.57997       -2.34428
H         36.34153       -0.74413       -6.37280
C         35.35674       -1.22190       -3.88722
C         44.16556        0.48344       -4.39781
C         44.95597       -0.57042       -7.11531
C         45.55134        0.66540       -4.96645
H         44.24414       -0.07381       -3.43915
H         43.74888        1.49295       -4.19007
C         45.90022        0.21217       -6.25264
H         44.83453       -0.03324       -8.08154
H         45.41600       -1.56328       -7.31422
C         47.18061        0.47409       -6.75985
C         46.52287        1.31061       -4.18309
C         47.81683        1.51346       -4.67360
C         48.14698        1.12254       -5.98016
H         47.43624        0.13288       -7.75686
H         46.27814        1.65203       -3.18462
H         48.54783        2.00881       -4.04667
C         49.67890        1.83346       -7.83277
C         50.95919        2.02037       -8.35565
C         52.11125        1.67270       -7.62137
C         51.92600        1.14003       -6.31124
C         49.50291        1.34789       -6.53325
C         50.62834        1.02313       -5.77738
H         48.82059        2.09090       -8.44147
H         51.01377        2.41708       -9.34688
H         50.49466        0.60503       -4.78584
C         53.52499        1.80779       -8.19161
C         53.05342        0.56429       -5.46914
C         52.79549       -0.92688       -5.40613
H         53.04896        1.03869       -4.46373
H         54.06096        0.72031       -5.89906
C         52.51701       -1.58147       -4.20088
C         52.17312       -2.94133       -4.19704
C         52.08895       -3.68100       -5.40382
C         52.76155       -1.66153       -6.59894
C         52.41190       -3.00611       -6.60088
C         51.63961       -5.12233       -5.42784
H         52.97210       -1.18432       -7.54628
H         52.39570       -3.48800       -7.56390
H         51.93461       -3.37948       -3.24111
H         52.53065       -1.03406       -3.26666
C         51.22467       -5.73741       -6.63392
C         51.58708       -5.90088       -4.25317
C         51.15355       -7.22752       -4.28911
C         50.77891       -7.06669       -6.67488
C         50.74801       -7.82088       -5.49152
H         51.21355       -5.19956       -7.56750
H         51.88870       -5.51075       -3.29414
H         51.13345       -7.79847       -3.36836
C         50.29405       -9.25331       -5.46253
C         49.88490       -9.82065       -6.79636
H         49.43143       -9.33717       -4.76606
H         51.13236       -9.86833       -5.06800
C         50.34470       -7.62809       -8.00629
C         49.90111       -9.06516       -7.97997
H         51.20299       -7.54798       -8.70871
H         49.50706       -7.00867       -8.39455
C         49.49213      -11.16361       -6.84335
C         49.10661      -11.78635       -8.05040
C         49.12557      -11.01261       -9.22401
C         49.51295       -9.66981       -9.18592
C         48.78807      -13.25462       -8.05416
C         49.60061      -14.05256       -7.22030
C         47.78193      -13.90874       -8.84247
H         48.89410      -11.44336      -10.18713
H         49.53463       -9.10286      -10.10890
H         49.49300      -11.72381       -5.91640
C         49.47193      -15.42848       -7.17158
H         50.38839      -13.62152       -6.61658
C         48.51741      -16.08403       -7.94166
C         47.66896      -15.31874       -8.76707
H         46.92218      -15.81142       -9.37524
H         50.14145      -15.99288       -6.53244
C         48.50247      -17.59635       -7.84616
C         47.39388      -18.29981       -8.60712
H         48.41147      -17.89773       -6.77920
H         49.50641      -17.89876       -8.18543
C         41.21182      -13.95057       -7.83591
C         42.65274      -13.70582       -8.35679
C         43.64268      -12.98243       -7.63720
C         39.39580      -13.89939       -6.15661
C         38.59358      -14.69319       -6.94577
C         39.00514      -15.07017       -8.21569
C         40.30207      -14.71799       -8.64158
C         43.10177      -14.25402       -9.59663
C         44.42000      -14.09418      -10.05522
C         44.95350      -12.83544       -8.08990
C         45.35990      -13.39131       -9.29688
H         38.97893      -13.59613       -5.20354
H         40.56871      -15.08980       -9.61085
H         42.47435      -14.82979      -10.24936
H         43.48979      -12.50517       -6.71130
H         45.66162      -12.27588       -7.48876
H         44.70768      -14.53441      -11.00216
C         46.78800      -13.20056       -9.75950
H         46.92265      -12.10984       -9.80296
H         46.92716      -13.60110      -10.78728
C         47.61284      -19.16691       -9.71409
C         49.00383      -19.49915      -10.15374
C         49.89116      -20.09591       -9.24057
C         46.09351      -18.06821       -8.15763
C         44.99408      -18.67257       -8.75600
C         45.17381      -19.52215       -9.86392
C         46.48899      -19.76869      -10.36026
C         51.18546      -20.44360       -9.62470
C         51.62501      -20.20888      -10.93606
C         49.44920      -19.25685      -11.46538
C         50.74779      -19.60642      -11.85196
C         53.02296      -20.60778      -11.35347
H         45.93623      -17.41738       -7.30339
C         46.71151      -20.72789      -11.52257
H         48.80188      -18.78324      -12.19023
H         51.06531      -19.41038      -12.86849
H         51.84107      -20.90259       -8.89608
H         49.57362      -20.30452       -8.22588
C         36.12790      -14.22171       -8.73371
C         36.60864      -15.46413       -9.18367
C         38.07081      -15.91242       -9.07720
H         38.49247      -16.09974      -10.08788
H         38.03182      -16.88958       -8.56308
C         34.75839      -13.93713       -8.74342
C         33.81448      -14.86655       -9.22195
C         34.29200      -16.12973       -9.70112
C         35.67943      -16.39124       -9.68420
H         34.43043      -12.97982       -8.35650
H         36.03474      -17.36191      -10.01309
C         32.35345      -14.54255       -9.08144
C         33.37959      -17.27393      -10.14390
C         33.29312      -18.46133       -9.19752
H         33.68895      -17.60891      -11.15749
H         32.33689      -16.96260      -10.22073
C         31.41229      -14.75882      -10.10873
C         31.88346      -14.08115       -7.83649
C         30.03961      -14.60955       -9.86956
C         29.57799      -14.23502       -8.59915
C         28.10294      -14.26382       -8.26674
C         27.54213      -12.94494       -7.76176
C         27.09263      -12.71250       -6.41781
C         26.99139      -13.76611       -5.35022
H         31.73336      -15.08357      -11.09052
H         29.33863      -14.84163      -10.66155
C         27.48044      -11.89497       -8.69514
C         26.68457      -11.40701       -6.06917
C         26.64528      -10.38184       -7.01015
C         27.01356      -10.62477       -8.33361
H         26.34121      -11.17880       -5.06835
H         26.28770       -9.40270       -6.71435
H         27.78971      -12.07520       -9.71853
H         23.11599       -6.74426      -10.32985
C         26.87283       -9.53285       -9.36468
H         27.06152       -9.93706      -10.38359
H         25.81510       -9.23883       -9.31920
C         26.73203      -15.72563       -3.31136
C         26.40262      -16.02560       -4.63872
C         27.19985      -14.43806       -3.00717
C         27.31709      -13.46806       -4.00991
C         26.51348      -15.05972       -5.63736
H         27.68121      -12.48711       -3.73344
H         27.46985      -14.17923       -1.99089
H         26.05468      -17.01367       -4.90885
H         26.19362      -15.33485       -6.63252
C         26.62272      -16.78313       -2.23345
C         43.64832      -18.39959       -8.13757
C         42.50192      -19.14035       -8.76036
H         43.43388      -17.30899       -8.17088
H         43.70520      -18.71875       -7.07373
C         42.64748      -19.92280       -9.84879
C         43.97487      -20.18832      -10.50283
H         43.90984      -19.85836      -11.56207
H         44.12152      -21.28890      -10.46024
C         41.41587      -20.55436      -10.44704
C         40.53945      -21.09424       -9.32732
C         41.16906      -19.04811       -8.09599
C         40.18796      -19.95930       -8.35596
C         38.83257      -19.89887       -7.68609
C         38.44811      -18.81864       -6.85224
C         37.17308      -18.76175       -6.27990
C         36.24945      -19.78389       -6.51537
C         36.62510      -20.87518       -7.30482
C         37.89018      -20.93411       -7.87889
C         34.84790      -19.72689       -5.96574
C         33.88400      -19.68035       -7.14465
H         34.68902      -18.83049       -5.32748
H         34.76559      -20.62201       -5.33236
H         35.92473      -21.68123       -7.49077
H         38.09394      -21.80738       -8.47354
H         39.10088      -17.98736       -6.64393
H         36.90260      -17.90855       -5.67002
H         41.04558      -18.25718       -7.37087
C         32.41429      -19.49545       -9.53242
C         32.24177      -20.59176       -8.69144
C         32.94734      -20.70989       -7.47584
C         34.01967      -18.56646       -8.00173
H         34.71887      -17.79165       -7.72340
H         31.83607      -19.44255      -10.44738
H         31.52232      -21.34080       -8.99463
C         32.66708      -21.91270       -6.62088
C         32.61372      -21.82541       -5.21629
C         32.35184      -22.95120       -4.43435
C         32.12898      -24.20137       -5.03043
C         32.39758      -23.16433       -7.21350
C         32.13523      -24.29124       -6.43020
H         32.40864      -23.28675       -8.28834
H         32.75022      -20.88151       -4.70748
H         32.32827      -22.84297       -3.35700
H         31.93389      -25.22908       -6.92700
C         31.86638      -25.41079       -4.15720
H         30.48232       -0.21622       -6.19125
H         32.86256        0.32341       -6.15846
H         24.09171       -0.66853       -5.85264
C         31.02672       -0.29727       -5.25848
H         24.64694        1.66042       -6.58294
C         32.38718        0.01216       -5.23664
H         28.79453       -1.95667       -4.81471
C         22.30219        0.49467       -5.63471
C         23.75770        0.20080       -5.24473
C         24.71205        1.37650       -5.51018
C         26.63262       -0.15763       -4.71466
N         26.09304        1.05358       -5.20093
C         27.18142        1.93726       -5.35278
C         28.34318        1.28936       -4.97679
C         28.90794       -1.09352       -4.12408
N         28.02707       -0.02954       -4.57409
H         26.07429       -1.05720       -4.49140
C         30.37303       -0.71663       -4.09072
H         27.11207        2.95652       -5.70961
H         29.32756        1.72572       -4.99626
C         33.13469       -0.11802       -4.05219
C         34.63284        0.13547       -4.08900
H         23.79978       -0.08042       -4.16969
H         24.41460        2.24843       -4.89191
H         28.57531       -1.42170       -3.11549
C         31.11111       -0.82953       -2.89987
C         32.48140       -0.54512       -2.88265
H         30.63364       -1.16334       -1.98724
H         33.03151       -0.66690       -1.95887
H         35.24511       -1.54817       -2.82959
H         34.88161       -2.00009       -4.52587
H         15.19606        2.68229      -11.64263
C         12.44744        2.69509      -11.41048
C         14.83906        2.65581      -10.59012
C         13.47235        1.95798      -10.54098
H         13.58053        0.91452      -10.91077
C         17.18082        2.41862       -9.63683
C         17.84538        1.55191       -8.78723
H         18.88299        1.62369       -8.48803
N         15.84149        1.99068       -9.77753
H         13.10954        1.93734       -9.48969
H         14.72605        3.70094      -10.22823
H         18.93500       -3.40261      -10.66625
C         19.14461       -2.93046       -9.72445
H         17.20334       -2.01160       -9.77305
C         18.13074       -2.11088       -9.22179
C         15.71002        0.82986       -8.98303
N         16.94428        0.55018       -8.36945
H         14.81028        0.24210       -8.85724
C         21.54147       -3.98819       -9.54028
C         20.37284       -3.09780       -9.03273
C         18.31073       -1.41932       -8.02246
C         17.23160       -0.54090       -7.46783
H         16.31894       -1.14756       -7.28132
C         20.53752       -2.35359       -7.83816
C         19.51781       -1.53878       -7.33871
H         21.45758       -2.38656       -7.27343
H         19.66875       -0.99324       -6.41696
H         49.96860        9.91413      -16.99097
H         52.00046        9.20631      -15.67512
C         49.66773       10.58063      -16.15309
C         51.70337        9.86988      -14.83637
H         47.80943       11.13323      -17.12165
H         50.11505       11.58511      -16.31835
C         48.14769       10.71295      -16.15114
H         47.67376        9.71823      -16.00973
C         50.17458       10.00229      -14.82679
H         49.72169        8.99832      -14.67103
H         54.40676        9.28175      -14.04041
C         53.59997        9.07647      -13.34917
H         47.82036       11.39266      -15.33570
N         52.23126        9.31683      -13.60274
H         54.66669        8.24403      -11.61356
C         53.73661        8.53400      -12.08460
H         49.86973       10.67427      -13.99459
H         52.15624       10.87186      -14.99971
H         51.80810        3.45944      -11.37451
H         51.18455        5.79307      -11.56138
H         50.46412        8.95854      -12.29310
C         52.31829        4.16673      -10.73971
C         51.95276        5.51042      -10.85188
C         51.53456        8.91012      -12.44328
N         52.45724        8.42307      -11.49936
C         53.77092        2.30445       -9.65297
C         53.31711        3.76036       -9.82667
H         51.07136        8.00935       -9.96638
C         52.56706        6.48301      -10.05297
C         52.16023        7.92687      -10.17503
C         53.92793        4.75227       -9.03345
C         53.55621        6.09397       -9.14179
H         54.70363        4.49217       -8.32545
H         54.04649        6.82893       -8.51554
H         52.69690        8.55855       -9.43434
H         16.01376      -18.98284       -4.94316
C         14.92810      -21.41917       -5.63763
C         16.75297      -19.81400       -4.94660
C         16.31878      -20.86770       -5.97110
H         16.30076      -20.40390       -6.98198
H         17.67930      -17.13714       -5.62050
C         18.38530      -17.95608       -5.57863
N         18.06320      -19.29550       -5.27377
H         20.26715      -16.96404       -6.09326
C         19.74508      -17.86867       -5.82275
H         17.05125      -21.70422       -5.97472
H         16.78380      -20.26145       -3.92953
H         23.82983      -15.88924       -3.83634
H         22.39890      -16.87628       -5.52510
H         19.36472      -21.08589       -5.15344
C         23.67543      -16.95841       -3.81754
C         22.84277      -17.52468       -4.78585
C         19.26552      -20.02402       -5.33923
N         20.32145      -19.15268       -5.67172
C         25.19329      -17.17230       -1.75329
C         24.29702      -17.76077       -2.84165
H         22.05897      -19.27985       -6.86480
C         22.60327      -18.90726       -4.80156
C         21.70888      -19.53999       -5.84331
C         24.05124      -19.14560       -2.86143
C         23.22215      -19.71168       -3.83172
H         24.50682      -19.79775       -2.12693
H         23.05942      -20.78230       -3.81812
H         21.77183      -20.64668       -5.74900
H         48.78083      -30.91604      -19.07994
H         50.46729      -29.70514      -17.63339
C         48.40556      -29.93644      -19.44867
C         50.08992      -28.72650      -18.00207
H         46.81631      -30.85959      -20.59741
H         48.97578      -29.65656      -20.36130
C         46.93116      -30.08066      -19.81444
H         46.34000      -30.38212      -18.92350
C         48.60553      -28.86783      -18.36781
H         48.03089      -29.15644      -17.46023
H         52.52915      -27.84843      -16.74878
C         51.59318      -27.39358      -16.45200
H         46.53506      -29.12009      -20.20749
N         50.32647      -27.72409      -16.97878
C         51.44139      -26.40549      -15.49660
H         48.22693      -27.89248      -18.74534
H         50.66344      -28.44635      -18.91234
H         51.28897      -23.87352      -10.41838
H         49.68927      -25.12293      -11.78164
C         51.31101      -23.75215      -11.49413
C         50.39676      -24.46587      -12.27179
C         49.39245      -26.90262      -16.30963
C         53.24105      -22.13545      -11.23229
C         52.24602      -22.89377      -12.09725
C         50.40356      -24.33938      -13.66867
C         49.42193      -25.11500      -14.51309
C         51.32893      -23.47461      -14.27429
H         22.09648       -4.38864       -7.47649
H         21.34565       -5.75385       -8.20716
H         27.17122      -16.43678       -1.32913
H         27.16310      -17.68742       -2.59002
H         53.21839      -20.29114      -12.40125
H         53.74839      -20.07093      -10.70415
H         54.01005        0.81163       -8.13093
H         54.08433        2.47105       -7.49978
H         30.45351        3.96816       -4.73539
H         32.84921        3.59044       -5.04700
H         22.35257        6.59141       -0.60845
H         23.97895        7.93548        0.73873
H         24.86278        6.28074       -0.92325
C         31.03004        3.55370       -3.91781
H         26.47254        7.63535        0.43262
C         32.39752        3.33530       -4.09661
H         28.47515        3.83843       -3.44495
C         22.49025        6.39490        0.47626
C         23.87807        6.84384        0.92462
C         24.97544        6.08823        0.16649
H         21.71669        6.95739        1.04032
C         26.37049        6.54388        0.61793
C         27.35318        4.85928       -1.07634
N         27.44189        5.85434       -0.07821
C         28.81868        6.08238        0.13178
C         29.54652        5.25756       -0.70663
C         28.93694        3.48711       -2.49736
N         28.64776        4.47556       -1.47345
H         26.43884        4.44871       -1.48437
C         30.41483        3.24882       -2.69367
H         29.23195        6.79457        0.83392
H         30.62592        5.22651       -0.76462
C         33.17788        2.81103       -3.05340
C         34.67470        2.63458       -3.24491
H         22.35375        5.30974        0.67082
H         23.98071        6.65672        2.01585
H         24.86617        4.99805        0.35820
H         26.47877        6.35849        1.70873
H         28.46080        2.52129       -2.22255
C         31.18799        2.70959       -1.65492
C         32.55683        2.49810       -1.82947
H         30.73006        2.46238       -0.70514
H         33.12987        2.09520       -1.00511
C         35.14757        1.17204       -3.05364
H         34.88775        0.50837       -5.10411
H         36.79640      -13.46837       -8.34291
H         37.61845      -14.98141       -6.57191
H         40.83489      -19.76528      -10.97458
H         41.67930      -21.33950      -11.18868
H         41.10604      -21.88017       -8.78135
H         39.65720      -21.54982       -9.81051
H         28.07134      -15.05727       -7.51283
H         27.49357      -14.60589       -9.13163
H         45.79643      -21.20067      -11.92013
H         47.38137      -21.55304      -11.20055
H         47.15589      -20.20511      -12.38761
C         53.24597        1.25659      -10.69058
H         51.92987        3.64802      -15.51516
H         52.23579        1.60940      -14.19481
H         52.08355       11.00572      -20.80155
H         52.72071        8.94342      -22.07065
H         52.37138        8.77916      -19.59406
C         52.67631        3.63486      -14.73074
H         53.01199        6.72640      -20.87852
C         52.85312        2.47141      -13.97560
H         52.21480        6.40400      -15.11084
C         53.10857       10.88603      -21.21286
C         53.44821        9.40650      -21.36878
C         53.39487        8.68224      -20.01895
H         53.15468       11.38507      -22.20370
C         53.73752        7.19381      -20.17779
C         53.39760        6.95481      -17.62896
N         53.69921        6.46997      -18.91997
C         53.97338        5.09459      -18.77026
C         53.84752        4.75275      -17.43644
C         53.25492        6.04710      -15.27060
N         53.48821        5.90370      -16.69693
H         53.14542        7.97611      -17.38094
C         53.45469        4.77441      -14.47661
H         54.23920        4.42065      -19.57401
H         53.99714        3.76539      -17.03401
C         53.79263        2.42983      -12.92930
C         53.93281        1.16696      -12.09255
H         53.83482       11.37928      -20.53211
H         54.46853        9.31638      -21.80146
H         54.75771        7.10020      -20.60969
H         53.94468        6.82976      -14.89330
C         54.40645        4.73128      -13.44538
C         54.56991        3.57557      -12.67713
H         55.01566        5.59809      -13.22138
H         55.30322        3.58287      -11.88274
H         34.91976        0.82473       -2.02312
H         36.25540        1.19293       -3.14923
C         21.26070       -4.67360      -10.92586
H         22.36507       -3.25953       -9.71345
H         20.66997       -6.41491      -15.65722
H         21.51424       -6.37718      -13.36140
H         15.73788       -3.80225      -23.37635
H         15.85892       -1.61023      -22.17242
H         16.74627       -3.66171      -21.03766
C         19.99456       -6.15123      -14.85295
H         16.85541       -1.46059      -19.84820
C         20.47598       -6.13017      -13.54098
H         18.91038       -6.22423      -17.23711
C         14.81852       -3.32011      -22.98088
C         15.16253       -2.39935      -21.81370
C         15.81472       -3.18010      -20.66693
H         14.34843       -2.72934      -23.79510
C         16.15827       -2.25087      -19.49404
C         17.08761       -4.32269      -18.26106
N         16.77666       -2.95033      -18.38219
C         17.19089       -2.34297      -17.17773
C         17.73186       -3.30792      -16.34783
C         18.12667       -5.86166      -16.53706
N         17.67382       -4.56244      -17.00393
H         16.90500       -5.08336      -19.00868
C         18.65487       -5.83247      -15.12285
H         17.09969       -1.28945      -16.94798
H         18.13572       -3.12408      -15.36171
C         19.62450       -5.79202      -12.47225
C         20.13024       -5.76480      -11.03507
H         14.10510       -4.10679      -22.65481
H         14.22931       -1.91443      -21.45262
H         15.11104       -3.96695      -20.31628
H         15.22639       -1.76440      -19.13209
H         17.27991       -6.58035      -16.57417
C         17.80206       -5.50119      -14.05871
C         18.28180       -5.47802      -12.74793
H         16.76304       -5.25964      -14.24663
H         17.60018       -5.21807      -11.94753
H         22.19194       -5.05665      -11.38489
H         20.97506       -3.82125      -11.58213
C         30.51327      -13.93897       -7.59557
H         32.57114      -13.90384       -7.01879
H         30.17908      -13.65305       -6.60553
C         32.96860      -26.51227       -4.13617
H         31.75308      -25.07387       -3.10231
H         30.88876      -25.85253       -4.44835
H         17.61089        3.28733      -10.11773
C         33.11756      -27.25985       -5.49212
C         33.87294      -28.62588       -5.46679
H         32.07441      -27.50054       -5.80006
H         33.56150      -26.60095       -6.26354
H         32.02936      -32.17155       -7.90511
H         32.59406      -31.03333       -5.81780
H         32.63339      -35.86808      -16.48803
H         35.06248      -35.37832      -16.13173
H         33.40542      -34.56696      -14.43563
C         32.55596      -31.22655       -7.95150
H         35.83893      -34.08796      -14.09980
C         32.87912      -30.57615       -6.75701
H         31.94218      -32.28505      -10.23785
C         33.16257      -35.12741      -17.12481
C         34.36339      -34.55026      -16.38090
C         33.92767      -33.83890      -15.09474
H         33.50694      -35.63573      -18.05000
C         35.13856      -33.26096      -14.34880
C         33.49060      -32.39461      -12.55617
N         34.77227      -32.58036      -13.11996
C         35.68444      -31.96625      -12.23694
C         34.98739      -31.43152      -11.16992
C         32.49043      -31.34809      -10.47774
N         33.60754      -31.69239      -11.34114
H         32.55675      -32.74663      -12.97439
C         32.88930      -30.65497       -9.19113
H         36.75650      -31.92382      -12.37781
H         35.43175      -30.90063      -10.34599
C         33.55954      -29.34770       -6.77304
H         32.45655      -34.31710      -17.40592
H         34.88627      -33.83031      -17.04770
H         33.22866      -33.01333      -15.35356
H         35.66420      -32.53943      -15.01138
H         31.79606      -30.68656      -11.03843
C         33.56084      -29.42294       -9.21132
C         33.90353      -28.78203       -8.01712
H         33.81842      -28.95695      -10.15433
H         34.42015      -27.83270       -8.06777
H         53.39966        0.24511      -10.25346
H         52.15129        1.33162      -10.81888
H         54.87562        2.29426       -9.75860
C         24.51357      -15.99427       -0.99116
H         25.39391      -17.98138       -1.04474
H         21.24453      -12.41018       -2.39250
H         22.40675      -14.54339       -2.45902
H         18.60862       -3.78797        0.64192
H         20.86003       -3.96369        1.72294
H         19.94614       -5.95561        0.50609
C         21.41259      -12.94346       -1.46503
H         22.19498       -6.11160        1.59625
C         22.08429      -14.16741       -1.49818
H         20.06897      -10.70820       -1.23794
C         18.70593       -3.82750        1.74784
C         20.00092       -4.53212        2.14150
C         20.02961       -5.97166        1.61513
H         18.71252       -2.78927        2.14153
C         21.33365       -6.67715        2.01371
C         20.45598       -8.77151        0.78057
N         21.40351       -8.04659        1.53653
C         22.48669       -8.92325        1.75870
C         22.21185      -10.14100        1.16370
C         20.23136      -11.09397       -0.20806
N         20.93849      -10.07303        0.54608
H         19.50240       -8.39774        0.43144
C         20.96347      -12.41427       -0.24947
H         23.38710       -8.67466        2.30503
H         22.87068      -10.99843        1.16972
C         22.33047      -14.90315       -0.31869
C         23.07336      -16.25095       -0.43366
H         17.83033       -4.36331        2.17250
H         20.08313       -4.53776        3.25038
H         19.16659       -6.53122        2.03859
H         21.41843       -6.68351        3.12224
H         19.23393      -11.26532        0.25090
C         21.18453      -13.13682        0.93008
C         21.85573      -14.36198        0.90084
H         20.83445      -12.74789        1.87870
H         21.98977      -14.85998        1.84737
H         24.46837      -15.18196       -1.74248
H         25.15786      -15.60870       -0.17170
C         54.70589      -22.50823      -11.58447
H         53.07698      -22.39210      -10.16727
H         58.10528      -25.78817      -14.63244
H         55.85531      -25.53793      -13.71049
H         67.42147      -27.03633      -15.25453
H         67.10275      -27.73823      -12.87278
H         65.15047      -26.78198      -14.12106
C         57.96502      -25.16501      -13.75806
H         64.85584      -27.48957      -11.73784
C         56.67788      -25.02234      -13.23053
H         60.39180      -25.27073      -14.68458
C         67.87222      -26.45091      -14.42496
C         67.07970      -26.65854      -13.13770
C         65.62641      -26.19892      -13.30210
H         68.91859      -26.79174      -14.27690
C         64.83366      -26.41047      -12.00472
C         62.77440      -25.43102      -13.22254
N         63.44861      -25.98943      -12.11374
C         62.49835      -26.07251      -11.07481
C         61.28804      -25.58678      -11.53224
C         60.43806      -24.62292      -13.78231
N         61.43130      -25.18133      -12.88000
H         63.20843      -25.22959      -14.19307
C         59.05534      -24.49607      -13.17664
H         62.69299      -26.45248      -10.08033
H         60.38712      -25.52178      -10.94762
C         56.45343      -24.21999      -12.09912
C         55.04168      -24.03373      -11.56402
H         67.88432      -25.37510      -14.70165
H         67.56461      -26.08048      -12.32092
H         65.61358      -25.11877      -13.56716
H         65.31621      -25.83371      -11.18585
H         60.77553      -23.61570      -14.10774
C         58.83386      -23.68714      -12.05158
C         57.55109      -23.55815      -11.51150
H         59.65707      -23.15411      -11.59211
H         57.41695      -22.92775      -10.64288
H         55.37296      -21.96177      -10.88470
H         54.91775      -22.13305      -12.61066
C         52.24197      -22.75823      -13.49720
H         51.34406      -23.35923      -15.35111
H         52.94752      -22.10322      -13.99088
N         50.06709      -26.07596      -15.39146
H         52.24661      -25.96664      -14.92321
H         48.83591      -24.39222      -15.12049
H         48.70909      -25.67032      -13.86554
H         48.32189      -26.90004      -16.46711
C         21.66418        1.62150       -4.82301
H         21.71713       -0.43029       -5.45213
H         22.24248        0.73860       -6.71780
H         21.70031        1.38350       -3.73883
H         20.60203        1.73537       -5.12668
H         22.17493        2.58843       -5.00671
C         11.08753        2.00449      -11.36351
H         12.80064        2.72056      -12.46448
H         12.33171        3.73975      -11.04755
H         11.16987        0.96340      -11.74224
H         10.36641        2.55864      -12.00057
H         10.70024        1.98470      -10.32248
C         14.49287      -22.46811       -6.65684
H         14.18710      -20.59017       -5.63723
H         14.94332      -21.88486       -4.62800
H         14.44821      -22.02321       -7.67377
H         13.48457      -22.84971       -6.39101
H         15.20548      -23.32036       -6.66221
H         42.99316      -28.14052        2.08803
H         42.45599      -28.31011        4.50629
H         42.24022      -27.81497       -0.30606
C         41.92926      -28.19155        2.40728
C         41.82162      -27.68541        3.84276
H         40.81393      -28.14096       -2.82884
H         41.59767      -29.25240        2.37525
H         42.16841      -26.63203        3.90778
C         41.17717      -27.86474        0.01561
H         40.84601      -28.92545       -0.01996
C         40.29099      -27.35029       -2.30697
C         41.06551      -27.35254        1.45854
H         41.40414      -26.29379        1.49832
N         40.37431      -27.09755       -0.91944
H         40.77004      -27.74607        4.19574
C         39.43699      -26.42752       -2.88362
H         39.17549      -26.37088       -3.93223
H         40.00406      -27.40934        1.78611
C         39.53979      -25.98547       -0.66707
N         38.95415      -25.56566       -1.87533
H         39.36755      -25.52370        0.29615
C         38.03496      -24.46396       -2.05448
H         38.49447      -23.72875       -2.75013
H         36.82763      -23.84714       -4.43897
C         36.72345      -24.96975       -2.59192
C         36.25435      -24.54694       -3.84338
C         35.96242      -25.88073       -1.84468
C         35.04579      -25.03402       -4.34460
H         37.85445      -23.95053       -1.08516
H         36.31102      -26.21842       -0.87639
H         34.72468      -24.69918       -5.32020
C         34.75125      -26.36681       -2.34329
C         34.27738      -25.95184       -3.60131
H         34.18719      -27.07383       -1.74805
H         32.57486      -27.26516       -3.41624
H         54.12479        9.15361      -19.32444
C         55.39935        0.65082      -11.97548
H         53.35428        0.35821      -12.59109
C         56.06727        0.15327      -13.28049
H         55.39195       -0.23052      -11.29681
H         56.04386        1.40918      -11.48893
Cl        55.14053       -1.24011      -13.93524
H         61.94026        3.59273      -17.49665
H         62.15621        5.17679      -19.93115
C         60.96553        4.04408      -17.62764
H         62.63649        7.07891      -21.52919
H         59.70067        2.76658      -16.37482
C         61.68284        5.88677      -19.21844
C         59.78967        3.61458      -17.03974
N         60.69288        5.16716      -18.43743
H         55.18551        0.43088      -15.94660
H         62.46619        6.27210      -18.53009
C         62.16415        7.78795      -20.81464
C         55.83530        1.22402      -15.60732
H         55.74236        2.18511      -17.51829
C         56.15317        2.23391      -16.51752
H         60.30553        6.67670      -20.70080
C         61.08388        7.06119      -20.00537
N         58.73243        4.45931      -17.45875
C         56.35574        1.24758      -14.29764
C         59.30619        5.40961      -18.32418
H         62.94734        8.17721      -20.12802
C         61.57254        8.95557      -21.59894
H         60.80084        8.59141      -22.31026
C         56.99114        3.29352      -16.14411
C         57.20181        2.31171      -13.93269
H         56.75681        4.24473      -18.07252
C         57.32032        4.39233      -17.12626
C         57.50918        3.32663      -14.84184
H         58.75649        6.19753      -18.82227
H         60.61695        7.77807      -19.29458
H         57.62839        2.35893      -12.93914
H         58.15691        4.13767      -14.53267
H         61.11218        9.69213      -20.90639
H         56.99717        5.36062      -16.68672
H         57.05689       -0.26756      -12.99757
H         60.98979      -29.04021       -6.09181
H         62.66882      -31.42228       -6.15236
C         60.86704      -29.44742       -7.08684
H         64.68242      -32.93997       -6.38407
H         59.00931      -28.48950       -7.74414
C         62.94883      -30.89907       -7.09249
C         59.83087      -29.15964       -7.95647
N         61.74405      -30.36569       -7.70233
H         54.63541      -28.96786      -10.31860
H         63.62260      -30.05187       -6.83886
C         64.96064      -32.41380       -7.32328
C         55.63758      -28.55917      -10.29354
H         56.51726      -30.51146      -10.40724
C         56.71322      -29.44849      -10.34057
H         63.02891      -32.73148       -8.25626
C         63.69780      -31.87825       -8.00769
N         60.02312      -29.88835       -9.15617
C         55.84377      -27.16475      -10.22079
C         61.20497      -30.63237       -8.98007
H         65.63687      -31.56781       -7.07148
C         65.70747      -33.38765       -8.23014
H         65.06094      -34.25578       -8.48008
C         58.02655      -28.96854      -10.29378
H         66.61563      -33.75884       -7.71012
C         57.16600      -26.69554      -10.15963
H         58.84695      -30.96201      -10.50203
C         59.19936      -29.91838      -10.35247
C         58.24132      -27.58821      -10.19945
H         61.62689      -31.29920       -9.72050
H         63.98640      -31.35468       -8.94571
H         57.38271      -25.65010      -10.05541
H         59.24971      -27.21299      -10.14480
H         66.01728      -32.88093       -9.16895
H         59.82144      -29.64111      -11.23071
C         54.79854      -24.70383      -10.16913
H         54.33751      -24.49607      -12.28271
C         54.62393      -26.25578      -10.14915
H         53.80445      -24.36410       -9.82737
H         55.52320      -24.35071       -9.40541
Cl        53.39577      -26.74082      -11.37163
H         54.16761      -26.50666       -9.16594
H         40.58519      -34.96955       -9.10998
H         40.16211      -37.50012      -10.50033
C         39.52041      -35.01539       -9.29729
H         39.98997      -39.23489      -12.33946
H         38.74201      -33.55045       -7.86457
C         39.59584      -36.77571      -11.12525
C         38.55182      -34.27164       -8.64745
N         38.89841      -35.85259      -10.24812
H         34.94720      -32.29839       -4.62962
H         40.31900      -36.19984      -11.74282
C         39.42553      -38.50654      -12.96178
C         35.42885      -32.14250       -5.58684
H         34.89273      -34.09559       -6.28693
C         35.39882      -33.17023       -6.53195
H         37.92757      -38.13131      -11.43940
C         38.64729      -37.54717      -12.05422
N         37.28190      -34.61617       -9.17166
C         36.06721      -30.92405       -5.87586
C         37.51294      -35.59738      -10.15363
H         40.14774      -37.93172      -13.58173
C         38.48496      -39.27393      -13.88651
H         37.76485      -39.87567      -13.29196
C         36.01774      -33.00424       -7.77922
H         39.07413      -39.95971      -14.53112
C         36.68503      -30.75713       -7.12562
H         35.36238      -34.96212       -8.43611
C         35.97097      -34.10942       -8.80772
C         36.66276      -31.78989       -8.06618
H         36.73837      -36.07016      -10.74318
H         38.08558      -36.82408      -12.68597
H         37.18905      -29.83052       -7.36942
H         37.15112      -31.64429       -9.02083
H         37.92296      -38.56978      -14.53652
H         35.47072      -33.71467       -9.71507
C         35.40876      -28.50792       -5.24608
H         33.44810      -29.20346       -4.61547
C         36.10123      -29.82825       -4.83775
H         35.59834      -27.85482       -4.38599
H         35.90165      -28.03822       -6.12387
Cl        37.80545      -29.49277       -4.41078
H         35.60849      -30.18114       -3.90468
H         19.68471      -25.44022        1.16224
H         18.66772      -27.31363        3.14894
C         19.60152      -24.86544        2.07535
H         17.07841      -28.71572        4.53478
H         20.90234      -23.15418        1.65439
C         18.01022      -26.42741        3.28429
C         20.23687      -23.66555        2.33621
N         18.82394      -25.22835        3.19529
H         24.30013      -19.79789        3.33435
H         17.26484      -26.41093        2.45948
C         16.42287      -27.82724        4.66622
C         23.28200      -19.96656        3.00763
H         22.87667      -21.29017        4.74467
C         22.44218      -20.85546        3.84941
H         18.01261      -26.57714        5.45149
C         17.27030      -26.55026        4.62365
N         19.87770      -23.22807        3.63527
C         22.78003      -19.40141        1.88110
C         19.01072      -24.20845        4.15480
H         15.67742      -27.80896        3.84131
C         15.68275      -27.95369        5.99451
H         16.40573      -27.99669        6.83680
C         21.16775      -21.12465        3.50205
H         15.07846      -28.88527        5.99658
C         21.36401      -19.70264        1.51181
H         20.83361      -22.34727        5.26680
C         20.29843      -22.03158        4.34473
C         20.60796      -20.50726        2.27259
H         18.55848      -24.17075        5.13711
H         16.60597      -25.66813        4.75678
H         19.58174      -20.71187        1.98201
H         15.00212      -27.08804        6.14111
H         19.40084      -21.45394        4.65287
C         22.96837      -17.07437        0.89527
H         22.49780      -16.82048       -1.19462
C         23.58090      -18.49386        0.94291
H         21.87077      -17.16450        1.04388
H         23.37050      -16.51961        1.76886
H         20.93312      -19.27350        0.61198
Cl        25.31468      -18.37187        1.42581
H         23.49891      -18.97284       -0.05302
H         11.72554       -5.99179      -10.23982
H          9.42523       -6.76784       -8.62239
C         12.14100       -6.34857       -9.30650
H          7.44261       -6.64750       -7.05402
H         14.22313       -6.74807       -9.85926
C         10.02412       -6.14572       -7.92217
C         13.44944       -6.74757       -9.10377
N         11.42761       -6.47453       -8.09556
H         17.01631       -9.54855      -10.69130
H          9.87567       -5.07554       -8.18434
C          8.04297       -6.02417       -6.35586
C         17.06396       -8.82568       -9.88590
H         15.09058       -9.31144       -9.19679
C         15.96379       -8.69102       -9.03617
H          9.66661       -7.45639       -6.22727
C          9.52713       -6.38443       -6.48929
N         13.60444       -7.14334       -7.75209
C         18.21346       -8.03371       -9.71180
C         12.34826       -6.96350       -7.14252
H          7.89335       -4.95329       -6.61516
C          7.54452       -6.26016       -4.93309
H          7.66194       -7.32930       -4.65516
C         15.98617       -7.76077       -7.98708
H          6.46921       -5.99146       -4.86600
C         18.23383       -7.11118       -8.64399
H         14.58805       -8.61073       -6.61268
C         14.79547       -7.61906       -7.06918
C         17.13310       -6.97869       -7.79338
H         12.13464       -7.17196       -6.10241
H         10.11869       -5.75655       -5.78715
H         19.09219       -6.49074       -8.44372
H         17.17828       -6.26112       -6.98340
H          8.11361       -5.63166       -4.21531
H         15.02397       -6.90787       -6.24587
C         20.53269       -7.20972      -10.60844
H         19.29381       -5.45878      -10.39242
C         19.36986       -8.23161      -10.68438
H         20.94832       -7.26137       -9.59225
H         21.32365       -7.56126      -11.30320
Cl        20.03482       -9.87284      -10.43735
H         18.96331       -8.20023      -11.71739
H         35.77805       12.28904        1.08847
H         36.32092       13.27721        3.77164
C         36.32810       11.49494        1.57614
H         37.39304       14.46619        5.72836
H         35.83697        9.76530        0.32333
C         37.31442       12.89772        3.44751
C         36.36234       10.17107        1.17684
N         37.12115       11.64841        2.73330
H         34.62832        4.81876        0.29620
H         37.76651       13.63828        2.75248
C         38.38717       14.08777        5.40440
C         35.37232        5.57553        0.08137
H         35.61951        6.03830        2.15803
C         35.93580        6.27522        1.14972
H         37.76166       12.01207        5.37956
C         38.21746       12.74725        4.68023
N         37.18605        9.44369        2.07093
C         35.75342        5.84839       -1.24692
C         37.64421       10.36990        3.02690
H         38.84411       14.83038        4.71446
C         39.28098       13.94100        6.63251
H         38.83543       13.21962        7.35035
C         36.89089        7.27391        0.91879
H         39.38576       14.92486        7.13650
C         36.71705        6.85413       -1.47215
H         37.14557        7.60301        3.04062
C         37.50329        8.02616        2.07676
C         37.27919        7.55495       -0.39986
H         38.29177       10.12468        3.85847
H         39.21611       12.37660        4.36018
H         37.04981        7.10909       -2.46760
H         38.02018        8.32009       -0.59689
H         40.29015       13.58418        6.33538
H         38.60580        7.89333        2.03811
C         35.43970        3.54876       -2.24787
H         34.96262        2.93743       -4.27544
C         35.09613        5.05434       -2.37088
H         36.53589        3.43081       -2.39709
H         35.21126        3.19727       -1.22029
Cl        35.53053        5.63711       -4.01378
H         34.00091        5.20503       -2.26278
H         62.37560        9.46235      -22.17447
