540

C         24.25420       -1.97430       -6.38727
C         25.57291       -2.65341       -6.67331
C         25.61175       -3.93415       -7.23750
C         26.83307       -4.56368       -7.49655
C         26.77888       -2.01038       -6.37410
C         27.99857       -2.63650       -6.63625
H         26.78052       -1.01985       -5.93570
C         28.06088       -3.93522       -7.19684
H         26.77296       -5.52016       -7.96639
H         28.89692       -2.09674       -6.37207
C         29.41708       -4.55941       -7.45320
C         30.44604       -3.67865       -7.86872
C         31.75169       -4.10991       -8.11851
H         30.23540       -2.62944       -8.03256
C         29.74737       -5.94992       -7.27978
C         31.08701       -6.34480       -7.50057
C         32.07321       -5.45366       -7.92146
C         33.45406       -5.99977       -8.15062
H         31.40627       -7.36264       -7.35106
C         32.76432       -3.09877       -8.59641
C         34.13950       -3.65256       -8.86404
H         32.85023       -2.29266       -7.83525
H         32.38310       -2.65648       -9.54266
C         34.45961       -5.00229       -8.64749
H         33.37888       -6.81161       -8.90752
H         33.82579       -6.43456       -7.19694
C         35.12762       -2.78828       -9.35247
C         35.75697       -5.46241       -8.90971
C         36.76060       -4.60627       -9.40841
H         35.94922       -6.51036       -8.73924
C         36.41493       -3.25550       -9.62887
H         34.89815       -1.74355       -9.52561
C         38.14460       -5.12440       -9.69659
H         37.13013       -2.53626       -9.99711
C         38.60305       -6.33757       -9.13256
C         39.03144       -4.42055      -10.54228
C         39.88849       -6.81154       -9.38862
H         37.99632       -6.93069       -8.46731
C         40.31289       -4.90920      -10.80985
H         38.74833       -3.49779      -11.02447
C         40.75807       -6.09995      -10.22314
H         40.20955       -7.73806       -8.92738
H         40.95834       -4.34871      -11.47283
C         42.14965       -6.62713      -10.47075
C         42.90750       -6.75234       -9.15510
H         42.71255       -6.01822      -11.19790
H         42.03235       -7.61863      -10.96011
C         43.21437       -5.65222       -8.29445
C         42.83955       -4.22960       -8.58060
C         42.99387       -3.61300       -9.84022
C         43.81646       -8.30658       -7.47727
C         43.21814       -8.05814       -8.72707
C         44.14366       -7.22266       -6.66354
C         43.83804       -5.92372       -7.05785
C         42.27536       -3.47253       -7.53778
C         41.84388       -2.16967       -7.75131
C         42.56444       -2.29353      -10.05382
C         41.97518       -1.56711       -9.01103
H         42.68590       -1.84477      -11.03159
H         43.45286       -4.13003      -10.66437
H         41.39101       -1.63147       -6.92829
H         42.12730       -3.89947       -6.55388
H         42.95415       -8.89078       -9.36510
H         44.08757       -5.12040       -6.37586
H         44.60369       -7.38507       -5.69617
C         44.06738       -9.70964       -6.94695
C         41.46476       -0.15747       -9.19284
C         42.25328        0.74759       -8.26078
H         40.39673       -0.25311       -8.96569
H         41.54858        0.20837      -10.23952
C         43.27525      -10.78768       -7.67667
H         43.70090       -9.74909       -5.89659
H         45.15097       -9.89439       -6.84433
C         41.77526        1.26098       -7.01503
C         42.71008        1.88668       -6.15962
C         44.05598        2.05559       -6.52484
C         43.59024        0.96149       -8.62620
C         44.48622        1.62055       -7.78609
H         42.39623        2.25178       -5.18948
H         43.95136        0.57459       -9.57368
C         40.36119        1.09956       -6.53385
C         40.09875        0.79976       -5.18090
C         38.78992        0.60085       -4.72946
C         37.70669        0.70971       -5.61396
C         37.95521        1.04551       -6.95198
C         39.26140        1.24644       -7.40210
H         39.40060        1.52758       -8.43695
H         40.90649        0.68000       -4.47093
H         38.62633        0.34427       -3.69015
H         37.13886        1.14442       -7.65588
C         36.29675        0.44160       -5.13947
C         45.00173        2.67637       -5.52764
C         45.89661        1.79462       -8.27334
C         46.43722        2.76905       -5.98160
H         44.97683        2.04346       -4.61363
H         44.64256        3.69490       -5.26511
C         46.84381        2.39011       -7.27455
H         45.88312        2.42508       -9.18899
H         46.29088        0.78873       -8.53883
C         48.18659        2.53436       -7.65414
C         47.39952        3.23579       -5.07297
C         48.74523        3.32176       -5.43963
C         49.15162        2.99042       -6.74335
H         48.48374        2.24085       -8.65409
H         47.10786        3.51964       -4.06901
H         49.46174        3.67744       -4.71019
C         50.93123        3.51456       -8.43959
C         52.27070        3.61526       -8.81499
C         53.30924        3.25607       -7.93235
C         52.95129        2.76831       -6.64300
C         50.57838        3.09065       -7.15215
C         51.59676        2.72564       -6.26412
H         50.17011        3.79673       -9.15609
H         52.46998        3.95541       -9.81394
H         51.33747        2.35390       -5.27970
C         54.77798        3.33694       -8.34191
C         53.95833        2.21499       -5.64914
C         53.70946        0.72700       -5.52141
H         53.84668        2.74486       -4.67817
H         55.00942        2.34432       -5.97072
C         53.32308        0.14208       -4.31070
C         53.05398       -1.23298       -4.23926
C         53.15989       -2.06820       -5.38217
C         53.83875       -0.08799       -6.65189
C         53.56928       -1.45208       -6.58782
C         52.83942       -3.55027       -5.32967
H         54.13686        0.33570       -7.60127
H         53.69333       -1.99218       -7.50949
H         52.74439       -1.60929       -3.27886
H         53.21301        0.75132       -3.42217
C         52.76871       -4.33302       -6.50881
C         52.58687       -4.21280       -4.10762
C         52.28818       -5.57723       -4.07145
C         52.46534       -5.70380       -6.47817
C         52.22494       -6.33390       -5.24773
H         52.93384       -3.90752       -7.48320
H         52.62132       -3.70482       -3.15860
H         52.10520       -6.04939       -3.11343
C         51.90133       -7.80136       -5.14102
C         51.86060       -8.54519       -6.45137
H         50.91036       -7.90737       -4.64829
H         52.67255       -8.27755       -4.49700
C         52.41154       -6.44508       -7.78925
C         52.09527       -7.91160       -7.68389
H         53.40208       -6.34154       -8.28390
H         51.64028       -5.96677       -8.43162
C         51.58759       -9.92268       -6.42579
C         51.53103      -10.68907       -7.60971
C         51.78308      -10.03592       -8.82912
C         52.05407       -8.66731       -8.86394
C         51.29632      -12.17062       -7.52678
C         52.00767      -12.84300       -6.51171
C         50.44684      -12.94513       -8.39046
H         51.81806      -10.57830       -9.76310
H         52.25199       -8.19525       -9.81890
H         51.41135      -10.39661       -5.46734
C         51.94627      -14.22128       -6.36720
H         52.66413      -12.30403       -5.83978
C         51.15553      -14.99302       -7.21554
C         50.40094      -14.34452       -8.21223
H         49.80418      -14.93199       -8.88994
H         52.54045      -14.69431       -5.59410
C         51.20724      -16.50037       -7.03625
C         50.20949      -17.27677       -7.87884
H         51.01795      -16.76170       -5.97183
H         52.25389      -16.74223       -7.26197
C         43.82093      -11.88643       -8.40830
C         45.29622      -12.04428       -8.67460
C         46.10857      -10.91880       -8.90664
C         41.88363      -10.67325       -7.54752
C         41.00836      -11.59450       -8.11036
C         41.51418      -12.70329       -8.80062
C         42.91384      -12.84554       -8.93463
C         45.90620      -13.31400       -8.75364
C         47.28368      -13.44346       -9.00808
C         47.47059      -11.04438       -9.15820
C         48.08893      -12.30412       -9.20401
H         41.46815       -9.83470       -6.99688
H         43.28650      -13.69132       -9.49822
H         45.32350      -14.21195       -8.60235
H         45.69875       -9.92104       -8.92793
H         48.04105      -10.13914       -9.32878
H         47.69846      -14.43646       -9.05753
C         49.58253      -12.36282       -9.50686
H         49.87506      -11.33224       -9.71495
H         49.76904      -12.91725      -10.45152
C         50.54382      -18.14990       -8.95919
C         51.94087      -18.51344       -9.36676
C         52.93756      -18.81668       -8.41819
C         48.85603      -17.06488       -7.56454
C         47.82793      -17.67459       -8.28508
C         48.14480      -18.50111       -9.37082
C         49.48815      -18.72248       -9.69953
C         54.22601      -19.17780       -8.82017
C         54.55188      -19.25422      -10.18177
C         52.27438      -18.61391      -10.73333
C         53.56426      -18.96946      -11.13464
C         55.94364      -19.64830      -10.61963
H         48.59801      -16.41027       -6.73844
H         49.70489      -19.38845      -10.52640
H         51.54128      -18.39955      -11.50037
H         53.78821      -19.02752      -12.19264
H         54.96775      -19.40459       -8.06498
H         52.72276      -18.80907       -7.35854
C         39.54298      -11.32484       -7.94496
C         38.63194      -12.31218       -8.60622
H         39.33539      -10.32496       -8.38746
H         39.30315      -11.29116       -6.85947
C         39.10690      -13.43767       -9.29169
C         40.59080      -13.73151       -9.42547
H         40.82530      -13.77981      -10.51088
H         40.80349      -14.72368       -8.97162
C         37.25873      -12.05849       -8.53836
C         36.30672      -12.89478       -9.14896
C         36.78281      -14.07543       -9.81242
C         38.17615      -14.31254       -9.87684
H         36.94005      -11.15740       -8.02809
H         38.54038      -15.19505      -10.39098
C         34.86459      -12.45061       -9.05938
C         35.86756      -15.12241      -10.43937
C         35.83522      -16.48943       -9.78030
H         36.12066      -15.22639      -11.51657
H         34.81910      -14.82239      -10.36137
C         33.97896      -12.55156      -10.15094
C         34.37376      -11.84862       -7.87870
C         33.04827      -11.40697       -7.78153
C         32.65391      -12.11915      -10.05051
C         32.16399      -11.55075       -8.86576
C         30.70780      -11.10775       -8.84640
C         30.18042      -10.48455       -7.55330
H         30.03578      -11.92969       -9.14930
H         30.61408      -10.38375       -9.68540
C         30.13618      -11.10858       -6.24876
C         30.61066      -12.51990       -5.91062
H         34.30546      -12.93869      -11.10599
H         32.00491      -12.22007      -10.91223
H         35.01054      -11.72825       -7.01210
H         32.73077      -10.95595       -6.85339
C         29.71006       -9.15866       -7.69279
C         29.62284      -10.32218       -5.18173
C         29.18104       -9.01485       -5.35806
C         29.22615       -8.41646       -6.61076
H         29.52886      -10.70347       -4.17835
H         28.79655       -8.47012       -4.50425
H         29.72572       -8.67230       -8.66160
H         24.69272       -4.45053       -7.48475
C         28.72757       -6.99423       -6.80738
H         27.93169       -7.11177       -7.55488
H         28.29309       -6.61932       -5.85534
C         31.55760      -15.12836       -5.19369
C         31.15451      -14.83907       -6.50726
C         31.47033      -14.11036       -4.24121
C         31.01274      -12.83799       -4.58710
C         30.68956      -13.56833       -6.85318
H         31.01458      -12.11050       -3.79190
H         31.77792      -14.29655       -3.21886
H         31.18662      -15.58458       -7.28653
H         30.38800      -13.46191       -7.86711
C         32.10247      -16.47571       -4.73703
C         46.41377      -17.41539       -7.84776
C         45.35943      -18.13523       -8.64166
H         46.21689      -16.32453       -7.89917
H         46.32390      -17.74265       -6.78863
C         45.67530      -18.95697       -9.73545
C         47.08932      -19.18877      -10.19394
H         47.18447      -18.85369      -11.24969
H         47.28324      -20.28292      -10.14791
C         44.64471      -19.60532      -10.42087
C         43.31791      -19.46432      -10.01743
C         44.02065      -17.98671       -8.24502
C         42.96873      -18.65665       -8.91055
C         41.53864      -18.54697       -8.43038
C         41.14817      -17.60194       -7.44746
C         39.83313      -17.54645       -6.97430
C         38.86862      -18.43214       -7.46262
C         39.23115      -19.36206       -8.44232
C         40.53801      -19.41857       -8.92090
C         37.45622      -18.42325       -6.93837
C         36.48367      -18.12263       -8.06387
H         37.32144      -17.67157       -6.13015
H         37.33997      -19.42403       -6.50031
H         38.49762      -20.05980       -8.82910
H         40.73686      -20.17885       -9.65640
H         41.83644      -16.89202       -7.02089
H         39.57283      -16.81768       -6.21653
H         43.83754      -17.36373       -7.38527
H         42.58851      -20.00606      -10.59486
H         44.87194      -20.24128      -11.26845
C         34.92149      -17.41693      -10.28787
C         34.75301      -18.65934       -9.68872
C         35.49694      -19.03947       -8.55187
C         36.62056      -16.85852       -8.67731
H         37.34549      -16.16850       -8.27090
H         34.29895      -17.15982      -11.13697
H         33.98872      -19.30277      -10.10322
C         35.15356      -20.36214       -7.92089
C         35.13478      -20.54001       -6.52216
C         34.76929      -21.76326       -5.95319
C         34.38790      -22.84727       -6.75545
C         34.75408      -21.45007       -8.72150
C         34.38085      -22.66822       -8.15306
H         34.73432      -21.37224       -9.80028
H         35.36342      -19.72771       -5.84765
H         34.76377      -21.85853       -4.87401
H         34.08435      -23.45328       -8.82904
C         33.98068      -24.14174       -6.05529
H         30.83441        0.96629       -6.29619
H         33.12430        1.59082       -6.90562
H         22.45330       -0.23002       -3.78339
H         22.84195        2.16696       -4.40043
H         24.80386        0.61320       -4.24839
C         31.60760        0.94617       -5.53779
H         25.16494        2.99836       -4.89486
C         32.91403        1.30195       -5.88337
H         29.58826       -0.67928       -4.50804
C         22.33905        0.57818       -3.02972
C         23.18649        1.78764       -3.41452
C         24.67160        1.41801       -3.49592
H         21.26930        0.87244       -2.98459
C         25.52086        2.62827       -3.90839
C         27.59072        1.14307       -3.80240
N         26.95067        2.31458       -4.01644
C         27.90534        3.19803       -4.36724
C         29.12237        2.55085       -4.36374
C         29.88619        0.16948       -3.85728
N         28.91713        1.26206       -4.01129
H         27.11127        0.21966       -3.50315
C         31.29795        0.56471       -4.22273
H         27.73066        4.23900       -4.60724
H         30.07779        2.99980       -4.59839
C         33.93909        1.27613       -4.92196
C         35.35466        1.64810       -5.31162
H         22.64583        0.19304       -2.03407
H         23.04041        2.58746       -2.65627
H         25.01221        1.04853       -2.50380
H         25.38818        3.43782       -3.15781
H         29.84302       -0.18210       -2.80341
C         32.31892        0.53679       -3.26029
C         33.62671        0.88973       -3.60564
H         32.10557        0.24118       -2.24063
H         34.39535        0.86045       -2.84396
H         36.30634        0.13312       -4.07171
H         35.90043       -0.41239       -5.73190
Cl        35.91188        3.04168       -4.33879
H         35.36775        1.95906       -6.37779
H         12.68592       -1.43791      -10.64412
H         14.84944       -0.12787      -10.70897
C         12.42907       -0.95037       -9.67835
C         14.59267        0.35800       -9.74227
H         11.85254       -0.02321       -9.88893
H         10.63220       -2.13803       -9.43663
C         11.55405       -1.89996       -8.86525
C         13.71443       -0.59742       -8.92112
H         12.09885       -2.84587       -8.65896
H         16.72668        2.03187      -10.52944
H         14.28325       -1.53070       -8.71471
C         16.77923        1.54734       -9.56291
C         17.80204        1.65849       -8.64452
H         18.70555        2.24527       -8.74936
N         15.83774        0.72463       -9.05706
H         11.26375       -1.42838       -7.90221
H         13.44726       -0.11130       -7.95705
H         14.01769        1.28578       -9.95469
H         20.90245       -2.74226       -8.05450
C         20.89278       -1.75954       -7.59979
H         18.74871       -1.70722       -7.50571
C         19.66426       -1.17121       -7.28725
C         16.29185        0.34376       -7.84158
N         17.48850        0.90210       -7.57437
H         15.77291       -0.32217       -7.16423
C         23.42217       -1.73302       -7.66176
C         22.09559       -1.08725       -7.32457
C         19.61558        0.10037       -6.69644
C         18.28703        0.72589       -6.36284
H         17.75397        0.06596       -5.64396
C         22.04239        0.18865       -6.73368
Cl        24.31158       -0.70054       -8.82225
C         20.81351        0.77629       -6.42208
H         22.95283        0.73160       -6.51478
H         20.79868        1.75897       -5.96765
H         18.42252        1.71687       -5.87755
H         52.21301       11.67787      -17.19242
H         54.12306       10.86479      -15.74656
C         51.88904       12.35324      -16.37065
C         53.79757       11.53919      -14.92450
H         50.12719       12.99927      -17.45515
H         52.39316       13.33623      -16.49702
C         50.38004       12.55794      -16.46811
H         49.85122       11.58622      -16.36703
C         52.27853       11.74407      -15.01887
H         51.76913       10.76227      -14.90169
H         56.35579       10.84844      -13.94835
C         55.49636       10.67602      -13.31325
H         50.03163       13.24794      -15.67022
N         54.21952       10.95599      -13.64548
H         56.37964        9.81190      -11.48773
C         55.51021       10.14050      -12.04248
H         51.95001       12.42600      -14.20392
H         54.30386       12.52105      -15.05140
H         53.51867        5.13174      -11.60545
H         52.95742        7.50443      -11.83654
H         52.39365       10.68272      -12.51656
C         53.93308        5.83899      -10.89792
C         53.61344        7.19220      -11.03317
C         53.47027       10.59122      -12.58043
N         54.24026       10.09057      -11.59475
C         55.12841        3.93116       -9.72769
C         54.77950        5.40289       -9.86301
H         52.68702        9.70821      -10.20265
C         54.13826        8.13802      -10.14065
C         53.78925        9.59472      -10.29576
C         55.30960        6.35770       -8.97463
C         54.98928        7.71122       -9.11080
Cl        56.88490        3.74609      -10.00221
H         55.97392        6.05941       -8.17443
H         55.40912        8.42504       -8.41304
H         54.26221       10.20624       -9.49688
H         22.07589      -19.01513      -13.05579
H         24.27252      -17.93631      -12.34297
C         21.84820      -19.22194      -11.98732
C         24.03798      -18.17208      -11.28225
H         20.01971      -20.28114      -12.46966
H         21.29559      -18.35361      -11.56669
C         20.95575      -20.45694      -11.89891
H         21.47165      -21.34241      -12.32608
C         23.15508      -19.42623      -11.21254
H         23.70085      -20.29034      -11.64202
H         26.11685      -16.33024      -10.79576
C         26.20372      -17.32718      -10.38312
H         20.69243      -20.66694      -10.84034
N         25.29524      -18.31002      -10.53751
H         28.11664      -17.24923       -9.31011
C         27.23833      -17.80570       -9.60891
H         22.91684      -19.64171      -10.14767
H         23.46679      -17.32139      -10.84991
H         32.33893      -19.50524       -7.69899
H         30.44649      -20.54692       -8.83957
H         25.30044      -20.34211       -9.79662
C         31.33726      -19.17728       -7.45287
C         30.25593      -19.77613       -8.10509
C         25.78828      -19.37859       -9.87149
N         26.97072      -19.09160       -9.29035
C         32.35434      -17.56339       -5.80736
C         31.13547      -18.16729       -6.49244
H         28.08265      -20.86788       -9.14247
C         28.94454      -19.38130       -7.80827
C         27.76085      -20.03173       -8.48547
C         29.81317      -17.78123       -6.19445
C         28.73369      -18.38187       -6.84613
Cl        33.52187      -16.92870       -7.00432
H         29.59756      -17.02207       -5.45721
H         27.72655      -18.07063       -6.59658
H         27.11771      -20.45877       -7.68576
H         25.78468      -20.45733      -15.61641
H         27.92909      -20.82411      -14.34338
C         25.21124      -20.51735      -14.66573
C         27.36424      -20.85408      -13.38594
H         23.30303      -20.41113      -15.68779
H         25.10484      -19.49276      -14.24766
C         23.82436      -21.07593      -14.96738
H         23.90539      -22.09038      -15.41259
C         25.96010      -21.40509      -13.66547
H         26.05092      -22.43206      -14.08287
H         29.99719      -20.60823      -12.40864
C         29.38587      -21.42487      -12.04659
H         23.22219      -21.13578      -14.03837
N         28.11612      -21.66682      -12.42349
H         30.73097      -22.46051      -10.66393
C         29.76244      -22.38975      -11.13901
H         25.38807      -21.45089      -12.71562
H         27.28342      -19.81809      -12.98915
H         32.28711      -26.96528       -8.74599
H         30.26238      -26.60215      -10.07027
H         26.75407      -23.23257      -11.81361
C         31.74185      -26.03804       -8.62189
C         30.58379      -25.83271       -9.37947
C         27.72980      -22.76936      -11.74229
N         28.71651      -23.22590      -10.94529
C         33.49024      -25.31405       -6.94188
C         32.20590      -25.05354       -7.72898
H         28.38104      -25.28847      -10.69958
C         29.85237      -24.64339       -9.24859
C         28.60717      -24.40159      -10.06846
C         31.44780      -23.86925       -7.59106
C         30.28503      -23.67507       -8.33473
Cl        34.82764      -25.86430       -8.00685
H         31.73277      -23.08111       -6.91114
H         29.72284      -22.75933       -8.20744
H         27.75608      -24.25453       -9.36888
H         51.88887      -31.59132      -15.54774
H         53.63576      -30.02997      -14.59090
C         51.39069      -30.72349      -16.03256
C         53.13542      -29.16286      -15.07495
H         49.75331      -31.93943      -16.76611
H         51.81800      -30.58965      -17.05035
C         49.89938      -31.02040      -16.16030
H         49.45023      -31.18066      -15.15697
C         51.63377      -29.45877      -15.20096
H         51.20262      -29.60206      -14.18573
H         55.57606      -27.93258      -14.37029
C         54.65280      -27.48249      -14.02855
H         49.37937      -30.17696      -16.66260
N         53.41886      -27.95784      -14.28636
H         55.34866      -25.73960      -12.89277
C         54.53095      -26.34276      -13.26291
H         51.13132      -28.59724      -15.69336
H         53.56423      -29.03013      -16.09233
H         54.65798      -22.76643       -8.78348
H         53.08889      -24.42530       -9.66684
H         51.48197      -27.20422      -13.68857
C         54.57237      -22.88889       -9.85604
C         53.67584      -23.83551      -10.35982
C         52.56026      -27.10871      -13.67852
N         53.21590      -26.11271      -13.04976
C         56.30861      -21.07591      -10.17049
C         55.34685      -22.10517      -10.72765
H         51.98404      -25.49711      -11.46737
C         53.54039      -24.01870      -11.74466
C         52.56600      -25.03405      -12.29391
C         55.20618      -22.28746      -12.11499
C         54.30995      -23.23362      -12.61765
Cl        57.97441      -21.46433      -10.68430
H         55.78914      -21.69699      -12.81000
H         54.21431      -23.35597      -13.68958
H         51.84918      -24.50123      -12.95543
H         24.43585       -1.00068       -5.88896
H         23.67723       -2.61144       -5.68197
H         23.24147       -2.71105       -8.15687
H         31.44490      -16.88757       -3.94107
H         33.09198      -16.27303       -4.27007
H         32.86174      -18.40654       -5.28914
H         33.17533      -23.91019       -5.32463
H         34.85574      -24.49709       -5.46865
H         33.27857      -26.17452       -6.27089
H         56.03094      -19.58545      -11.72601
H         56.67035      -18.92470      -10.19109
H         56.30113      -21.10910       -9.05973
H         55.18356        2.30408       -8.31511
H         55.31707        3.93419       -7.57741
H         54.62482        3.32796      -10.51408
