15
Coordinates from ORCA-job input E -1824.882921771362
  C      -0.568129      2.506632     -0.807126
  C       3.768636      2.624815     -1.601814
  F      -1.207843      3.396655     -0.040782
  F      -0.289424      3.113399     -1.963292
  F      -1.453260      1.535146     -1.084977
  F       2.775327      2.918763     -2.444889
  F       4.816823      3.379714     -1.983686
  F       4.133613      1.362399     -1.808044
  S       0.978889      1.826387      0.050157
  S       3.314889      3.015299      0.209659
  N       1.751865      3.198741      0.178554
  O       0.454462      1.284497      1.265525
  O       1.549053      0.921569     -0.899424
  O       3.976628      4.263006      0.449408
  O       3.771211      1.879376      0.951131
15
Coordinates from ORCA-job input E -1824.899154736820
  C      -0.600667      2.507339     -0.806438
  C       3.812010      2.651358     -1.629177
  F      -1.219197      3.430714     -0.042647
  F      -0.289992      3.076308     -1.986143
  F      -1.488507      1.517092     -1.050111
  F       2.815659      2.966721     -2.476913
  F       4.878149      3.424011     -1.959250
  F       4.173399      1.377327     -1.833573
  S       0.927486      1.806218      0.063600
  S       3.338810      3.008815      0.198324
  N       1.749550      3.182209      0.170521
  O       0.389520      1.304439      1.319795
  O       1.484354      0.844784     -0.880699
  O       3.989760      4.286848      0.449827
  O       3.812407      1.842217      0.933284
15
Coordinates from ORCA-job input E -1824.904038513825
  C      -0.612520      2.510593     -0.807645
  C       3.837244      2.671529     -1.642312
  F      -1.217909      3.455306     -0.059259
  F      -0.286327      3.050953     -1.997319
  F      -1.505805      1.520505     -1.030112
  F       2.838759      2.997352     -2.484417
  F       4.913909      3.434523     -1.960743
  F       4.172417      1.389048     -1.845610
  S       0.894126      1.782517      0.071920
  S       3.362170      3.009922      0.196317
  N       1.750538      3.163363      0.178537
  O       0.342078      1.301838      1.354501
  O       1.440526      0.789463     -0.882082
  O       3.980399      4.324664      0.452424
  O       3.863136      1.824824      0.926201
15
Coordinates from ORCA-job input E -1824.904651504363
  C      -0.605740      2.500201     -0.814654
  C       3.835722      2.694152     -1.648677
  F      -1.193975      3.478868     -0.101012
  F      -0.267789      2.994028     -2.019072
  F      -1.515032      1.519133     -1.004966
  F       2.858570      3.093080     -2.481849
  F       4.950951      3.402820     -1.946756
  F       4.097726      1.400196     -1.878881
  S       0.884008      1.766680      0.087586
  S       3.371596      3.009308      0.196527
  N       1.752473      3.148751      0.189936
  O       0.317458      1.308483      1.378144
  O       1.426857      0.753749     -0.856977
  O       3.964530      4.339133      0.461019
  O       3.895384      1.817819      0.910031
15
Coordinates from ORCA-job input E -1824.904914084281
  C      -0.594562      2.493079     -0.821990
  C       3.829215      2.711567     -1.652467
  F      -1.170510      3.498857     -0.139652
  F      -0.237732      2.949433     -2.034350
  F      -1.519401      1.523363     -0.995228
  F       2.863808      3.161732     -2.472165
  F       4.966186      3.385768     -1.939598
  F       4.043710      1.414476     -1.908637
  S       0.876650      1.752850      0.105298
  S       3.378503      3.005049      0.195670
  N       1.755769      3.132084      0.203898
  O       0.294227      1.317888      1.398270
  O       1.413360      0.722668     -0.826421
  O       3.948152      4.344933      0.466008
  O       3.925366      1.812654      0.891765
15
Coordinates from ORCA-job input E -1824.905146573267
  C      -0.575850      2.484513     -0.832176
  C       3.815032      2.730671     -1.657495
  F      -1.151108      3.510585     -0.182539
  F      -0.184814      2.912104     -2.043870
  F      -1.512405      1.525664     -1.008603
  F       2.865170      3.243759     -2.458625
  F       4.978342      3.360183     -1.935773
  F       3.969127      1.432614     -1.947782
  S       0.868601      1.737758      0.133061
  S       3.385648      2.999176      0.193156
  N       1.761267      3.109581      0.226104
  O       0.264045      1.335990      1.425737
  O       1.398108      0.684441     -0.775373
  O       3.927443      4.348865      0.467835
  O       3.964134      1.810496      0.866744
15
Coordinates from ORCA-job input E -1824.905296700696
  C      -0.554446      2.476242     -0.843874
  C       3.796147      2.747456     -1.662242
  F      -1.133836      3.517047     -0.222116
  F      -0.128300      2.883312     -2.051323
  F      -1.499261      1.526396     -1.031269
  F       2.859512      3.313930     -2.444556
  F       4.980545      3.339202     -1.936698
  F       3.898188      1.451716     -1.984867
  S       0.862195      1.726691      0.161388
  S       3.390693      2.992487      0.191373
  N       1.767534      3.087946      0.251524
  O       0.234253      1.356776      1.450303
  O       1.388496      0.651883     -0.719705
  O       3.913663      4.347149      0.469934
  O       3.997356      1.808167      0.842527
15
Coordinates from ORCA-job input E -1824.905407100927
  C      -0.531516      2.466027     -0.857005
  C       3.773411      2.763952     -1.667163
  F      -1.117141      3.518925     -0.260631
  F      -0.073429      2.856072     -2.059276
  F      -1.480902      1.522436     -1.056372
  F       2.854114      3.385984     -2.429694
  F       4.979860      3.313050     -1.939703
  F       3.818686      1.472794     -2.021631
  S       0.857719      1.719459      0.188799
  S       3.394306      2.986663      0.190871
  N       1.774208      3.068863      0.279028
  O       0.204256      1.379889      1.471506
  O       1.386359      0.624541     -0.662062
  O       3.908433      4.342690      0.473271
  O       4.024374      1.805056      0.820461
15
Coordinates from ORCA-job input E -1824.905554529844
  C      -0.495737      2.445072     -0.878285
  C       3.736834      2.792996     -1.675280
  F      -1.088332      3.518483     -0.324654
  F       0.006240      2.803187     -2.074027
  F      -1.450116      1.508593     -1.088473
  F       2.858760      3.512074     -2.402666
  F       4.979701      3.259177     -1.945382
  F       3.678367      1.516865     -2.080724
  S       0.851488      1.711968      0.230220
  S       3.399371      2.978405      0.190416
  N       1.784644      3.043450      0.320730
  O       0.156205      1.420829      1.501366
  O       1.387190      0.585718     -0.570472
  O       3.909466      4.333295      0.482277
  O       4.058660      1.796286      0.785355
15
Coordinates from ORCA-job input E -1824.905753046112
  C      -0.448373      2.411113     -0.906436
  C       3.688408      2.836493     -1.685586
  F      -1.046556      3.512516     -0.414921
  F       0.106990      2.720123     -2.093261
  F      -1.407113      1.481079     -1.123063
  F       2.885135      3.686182     -2.358668
  F       4.972228      3.175449     -1.959267
  F       3.479794      1.598421     -2.156025
  S       0.843258      1.706986      0.283148
  S       3.405626      2.966924      0.189096
  N       1.798298      3.016150      0.371574
  O       0.092358      1.483342      1.535799
  O       1.388584      0.539044     -0.446109
  O       3.921612      4.315667      0.499594
  O       4.092490      1.776911      0.734524
15
Coordinates from ORCA-job input E -1824.905982125840
  C      -0.412895      2.384084     -0.928040
  C       3.651240      2.871042     -1.692662
  F      -1.011911      3.506049     -0.485468
  F       0.177911      2.653184     -2.108017
  F      -1.373093      1.456993     -1.143688
  F       2.897314      3.797476     -2.319873
  F       4.950453      3.132008     -1.978887
  F       3.349171      1.668071     -2.202693
  S       0.838374      1.709212      0.318833
  S       3.410375      2.955048      0.189090
  N       1.808805      3.004011      0.405572
  O       0.043986      1.539881      1.554536
  O       1.393067      0.509518     -0.351453
  O       3.948651      4.291924      0.518818
  O       4.101293      1.747899      0.694333
15
Coordinates from ORCA-job input E -1824.906224160320
  C      -0.359141      2.340156     -0.959368
  C       3.595019      2.923812     -1.699931
  F      -0.962931      3.485235     -0.588819
  F       0.279514      2.555454     -2.126237
  F      -1.315943      1.411977     -1.173013
  F       2.934688      3.960517     -2.254167
  F       4.905787      3.049662     -2.018149
  F       3.138279      1.790363     -2.253756
  S       0.835436      1.716333      0.366014
  S       3.417107      2.939459      0.189682
  N       1.823563      2.996212      0.451662
  O      -0.021249      1.625137      1.570812
  O       1.404736      0.475342     -0.216012
  O       3.995972      4.254503      0.546993
  O       4.101905      1.702239      0.634689
15
Coordinates from ORCA-job input E -1824.904861956700
  C      -0.400114      2.364874     -0.943615
  C       3.628280      2.888790     -1.692491
  F      -1.035951      3.459768     -0.499505
  F       0.167918      2.663099     -2.127311
  F      -1.317231      1.400913     -1.152761
  F       2.892373      3.840721     -2.286752
  F       4.920111      3.090962     -2.015168
  F       3.251210      1.692466     -2.168952
  S       0.873617      1.729956      0.303961
  S       3.414955      2.958995      0.207448
  N       1.810811      3.072827      0.396945
  O       0.040193      1.593013      1.529055
  O       1.472724      0.520594     -0.334921
  O       4.040353      4.260484      0.551393
  O       4.013491      1.688940      0.703075
15
Coordinates from ORCA-job input E -1824.906230329749
  C      -0.388307      2.360768     -0.945094
  C       3.625836      2.899131     -1.697148
  F      -1.001253      3.485733     -0.534962
  F       0.220919      2.613990     -2.119378
  F      -1.336118      1.423064     -1.160428
  F       2.910011      3.877520     -2.285019
  F       4.928636      3.096868     -2.004136
  F       3.247911      1.724645     -2.223528
  S       0.841786      1.716987      0.339819
  S       3.415925      2.946476      0.191599
  N       1.815483      3.016687      0.422346
  O       0.012431      1.595042      1.561462
  O       1.407446      0.493373     -0.282735
  O       3.988906      4.265606      0.542020
  O       4.083129      1.710510      0.665581
15
Coordinates from ORCA-job input E -1824.906363499454
  C      -0.354701      2.334628     -0.963027
  C       3.593070      2.929895     -1.701186
  F      -0.977677      3.468729     -0.594549
  F       0.288763      2.563449     -2.124451
  F      -1.296831      1.393402     -1.186855
  F       2.945277      3.978330     -2.246652
  F       4.901479      3.035358     -2.029271
  F       3.114967      1.804390     -2.253969
  S       0.836347      1.719814      0.372438
  S       3.420743      2.937266      0.188592
  N       1.824672      3.007151      0.453858
  O      -0.027112      1.644893      1.574184
  O       1.403563      0.471987     -0.197314
  O       4.006184      4.246697      0.555054
  O       4.093996      1.690410      0.623548
15
Coordinates from ORCA-job input E -1824.906403524833
  C      -0.356722      2.335253     -0.962256
  C       3.595491      2.928381     -1.700775
  F      -0.984170      3.465374     -0.589348
  F       0.284010      2.570713     -2.123721
  F      -1.295792      1.390944     -1.188402
  F       2.953287      3.978771     -2.249112
  F       4.904504      3.026334     -2.028570
  F       3.112307      1.803422     -2.250809
  S       0.837610      1.719318      0.370866
  S       3.420727      2.939242      0.188441
  N       1.823549      3.010183      0.453159
  O      -0.023103      1.641832      1.573869
  O       1.404439      0.473407     -0.201980
  O       4.002516      4.249722      0.554845
  O       4.094087      1.693505      0.624193
15
Coordinates from ORCA-job input E -1824.906450271770
  C      -0.353911      2.331625     -0.964352
  C       3.593732      2.929997     -1.700250
  F      -0.997560      3.451283     -0.587968
  F       0.287210      2.581934     -2.122364
  F      -1.281289      1.376620     -1.199706
  F       2.978050      3.996819     -2.246962
  F       4.903268      2.991692     -2.033894
  F       3.077268      1.817291     -2.246629
  S       0.841255      1.720277      0.372769
  S       3.421346      2.942047      0.188468
  N       1.822021      3.020096      0.457096
  O      -0.019054      1.645761      1.574770
  O       1.408728      0.474940     -0.196602
  O       3.999490      4.251464      0.558866
  O       4.092188      1.694553      0.617159
15
Coordinates from ORCA-job input E -1824.906450891142
  C      -0.360670      2.336563     -0.960788
  C       3.600254      2.924029     -1.699670
  F      -1.002239      3.454824     -0.576883
  F       0.274205      2.590771     -2.121328
  F      -1.289503      1.382480     -1.194359
  F       2.970035      3.978081     -2.254571
  F       4.910169      3.004907     -2.027986
  F       3.103953      1.800711     -2.242568
  S       0.842237      1.720100      0.366723
  S       3.420111      2.943413      0.189012
  N       1.819742      3.022841      0.450383
  O      -0.010728      1.636452      1.573162
  O       1.409702      0.479428     -0.212560
  O       3.996146      4.254282      0.557228
  O       4.089325      1.697517      0.624603
15
Coordinates from ORCA-job input E -1824.906453787420
  C      -0.357348      2.334172     -0.962410
  C       3.596885      2.926911     -1.700051
  F      -0.998895      3.454044     -0.583081
  F       0.281020      2.584902     -2.121862
  F      -1.286324      1.380429     -1.196167
  F       2.971977      3.986372     -2.250813
  F       4.906711      3.000938     -2.030396
  F       3.092868      1.808254     -2.245440
  S       0.841622      1.720461      0.369733
  S       3.420420      2.942286      0.188824
  N       1.820605      3.021757      0.453042
  O      -0.014581      1.640992      1.574271
  O       1.409450      0.477563     -0.204598
  O       3.998300      4.252094      0.558438
  O       4.090030      1.695224      0.620911
15
Coordinates from ORCA-job input E -1824.906454100096
  C      -0.356851      2.333682     -0.962583
  C       3.596304      2.927354     -1.700139
  F      -0.998467      3.453839     -0.584188
  F       0.282299      2.583739     -2.121789
  F      -1.285829      1.380006     -1.196435
  F       2.972671      3.987988     -2.250223
  F       4.906219      2.999899     -2.030570
  F       3.090750      1.809752     -2.246185
  S       0.841571      1.720623      0.370255
  S       3.420291      2.942065      0.188781
  N       1.820468      3.022092      0.453128
  O      -0.014854      1.641562      1.574654
  O       1.409735      0.477520     -0.203299
  O       3.998643      4.251594      0.558786
  O       4.089790      1.694684      0.620207
