15
Coordinates from ORCA-job input E -1824.906454100096
  C          -0.35685108988950      2.33368189407532     -0.96258308682313
  C           3.59630417981134      2.92735438449379     -1.70013899630290
  F          -0.99846694078764      3.45383889440387     -0.58418834104211
  F           0.28229882365990      2.58373932552898     -2.12178911900916
  F          -1.28582901733618      1.38000631062272     -1.19643482494616
  F           2.97267054153138      3.98798827412052     -2.25022293036975
  F           4.90621939729311      2.99989890498432     -2.03056994867747
  F           3.09074953721916      1.80975151345063     -2.24618516307232
  S           0.84157074863338      1.72062334516338      0.37025508416679
  S           3.42029124278464      2.94206488048398      0.18878122685661
  N           1.82046838811433      3.02209162407838      0.45312807101319
  O          -0.01485366606025      1.64156162229763      1.57465416345863
  O           1.40973530056774      0.47752031496357     -0.20329904321632
  O           3.99864301107725      4.25159427881766      0.55878551355415
  O           4.08978954338054      1.69468443251480      0.62020739440930
