43
Coordinates from ORCA-job input E -732.543926452869
  C       1.538921      2.029131     -0.348106
  C       2.789616      1.585739     -0.301671
  H       0.706558      1.347568     -0.333453
  H       1.288437      3.074987     -0.394308
  C       3.998833      2.399576     -0.306068
  H       2.966745      0.519258     -0.240585
  C       3.987302      3.783135     -0.499736
  C       5.158715      4.510125     -0.486263
  C       6.381956      3.880756     -0.281743
  C       5.232370      1.777175     -0.109164
  C       6.406475      2.505046     -0.099197
  H       5.269058      0.708447      0.042552
  H       7.347177      1.996584      0.064957
  H       5.134832      5.579122     -0.636584
  H       3.052810      4.295135     -0.663582
  C       7.650674      4.690962     -0.283746
  N       7.806215      5.351847     -1.580710
  H       8.504098      4.042817     -0.038267
  H       7.582886      5.477734      0.471541
  C       8.832134      6.292299     -1.715372
  C       7.969984      4.466066     -2.709542
  C       9.497529      4.238646     -2.787622
  H       7.606012      4.960462     -3.613405
  H       7.411677      3.543877     -2.563329
  N      10.078207      5.515257     -2.292445
  H       9.836379      4.009234     -3.794596
  H       9.788672      3.430685     -2.116747
  H       9.095761      6.782757     -0.779449
  H       8.580776      7.038269     -2.474982
  C      11.190765      5.356229     -1.329168
  C      12.434927      4.762541     -1.982873
  H      10.850071      4.724330     -0.506424
  H      11.433418      6.342819     -0.926955
  C      13.591595      4.680044     -0.983192
  H      12.740809      5.387824     -2.825515
  H      12.227048      3.761246     -2.363970
  C      14.836107      4.083853     -1.627521
  H      13.293025      4.065484     -0.132365
  H      13.820418      5.679466     -0.609760
  H      14.639473      3.077904     -1.989218
  H      15.644036      4.033818     -0.904104
  H      15.166085      4.693269     -2.464938
  H      10.445894      6.050150     -3.082409
43
Coordinates from ORCA-job input E -732.554930731363
  C       1.487520      1.971960     -0.292835
  C       2.759806      1.538146     -0.249960
  H       0.646280      1.265798     -0.262990
  H       1.220707      3.037469     -0.351575
  C       3.973642      2.368017     -0.275043
  H       2.948381      0.454595     -0.176394
  C       3.949492      3.765866     -0.480170
  C       5.125507      4.511835     -0.486137
  C       6.372002      3.889108     -0.291088
  C       5.228481      1.753569     -0.085975
  C       6.409342      2.500908     -0.094095
  H       5.276324      0.666999      0.075459
  H       7.373496      1.993745      0.065856
  H       5.086247      5.598557     -0.650387
  H       2.990888      4.277738     -0.639443
  C       7.641598      4.710594     -0.315559
  N       7.804698      5.393756     -1.618520
  H       8.508258      4.053000     -0.067712
  H       7.586640      5.503703      0.456389
  C       8.837400      6.342858     -1.738883
  C       7.962784      4.528477     -2.779426
  C       9.492896      4.276983     -2.850343
  H       7.609033      5.052397     -3.690933
  H       7.381882      3.596633     -2.662660
  N      10.094296      5.550318     -2.319275
  H       9.853974      4.061760     -3.870412
  H       9.780991      3.447066     -2.181073
  H       9.109663      6.828010     -0.785390
  H       8.610102      7.106946     -2.510226
  C      11.211443      5.365679     -1.339176
  C      12.464709      4.762122     -1.973942
  H      10.836577      4.724857     -0.518601
  H      11.451858      6.360062     -0.915526
  C      13.612093      4.644982     -0.956764
  H      12.795983      5.402388     -2.819637
  H      12.242680      3.756601     -2.385276
  C      14.874558      4.042118     -1.581233
  H      13.281943      4.014501     -0.105807
  H      13.842981      5.650165     -0.548390
  H      14.677790      3.025382     -1.971762
  H      15.681552      3.968827     -0.829743
  H      15.241782      4.668424     -2.416635
  H      10.476200      6.098751     -3.108742
43
Coordinates from ORCA-job input E -732.555614991021
  C       1.515919      1.917547     -0.287667
  C       2.798654      1.503952     -0.229194
  H       0.685385      1.196408     -0.248740
  H       1.233534      2.979916     -0.368680
  C       4.001926      2.351560     -0.264561
  H       3.001186      0.422669     -0.133897
  C       3.956990      3.751174     -0.482977
  C       5.123454      4.516907     -0.497884
  C       6.383848      3.913745     -0.297874
  C       5.269469      1.757169     -0.072350
  C       6.441812      2.524362     -0.090074
  H       5.333314      0.671034      0.098154
  H       7.415657      2.032989      0.072249
  H       5.065092      5.602706     -0.674072
  H       2.988569      4.247525     -0.644777
  C       7.641376      4.750028     -0.327518
  N       7.798381      5.440192     -1.629226
  H       8.516117      4.099280     -0.079408
  H       7.588696      5.544131      0.446513
  C       8.832260      6.386615     -1.748112
  C       7.946904      4.583208     -2.799233
  C       9.473084      4.311080     -2.870818
  H       7.600141      5.117669     -3.709380
  H       7.352912      3.655796     -2.693051
  N      10.091915      5.579410     -2.329216
  H       9.844853      4.100147     -3.889922
  H       9.759916      3.477808     -2.202219
  H       9.113168      6.869452     -0.794335
  H       8.621975      7.150832     -2.525892
  C      11.206916      5.377262     -1.342933
  C      12.449386      4.746979     -1.966817
  H      10.805199      4.749807     -0.521934
  H      11.454951      6.372861     -0.921768
  C      13.587856      4.599841     -0.944173
  H      12.799101      5.379338     -2.814653
  H      12.204144      3.747544     -2.386974
  C      14.844493      3.972236     -1.555171
  H      13.234198      3.977069     -0.093536
  H      13.833696      5.599693     -0.524493
  H      14.634003      2.958102     -1.952458
  H      15.645189      3.878664     -0.796117
  H      15.237746      4.591195     -2.387532
  H      10.481095      6.125768     -3.117312
43
Coordinates from ORCA-job input E -732.555829355764
  C       1.547133      1.876107     -0.300100
  C       2.835497      1.480622     -0.214975
  H       0.726756      1.143904     -0.254203
  H       1.253912      2.932926     -0.410903
  C       4.028547      2.341303     -0.256199
  H       3.047634      0.403917     -0.091780
  C       3.967510      3.739543     -0.488764
  C       5.124493      4.519928     -0.508952
  C       6.393509      3.934144     -0.299929
  C       5.303687      1.764570     -0.055695
  C       6.467143      2.546611     -0.079058
  H       5.379725      0.680803      0.124828
  H       7.446974      2.069224      0.088872
  H       5.051103      5.602941     -0.696385
  H       2.993086      4.222173     -0.656262
  C       7.640762      4.781575     -0.331442
  N       7.792797      5.476420     -1.631474
  H       8.521026      4.137763     -0.082770
  H       7.590279      5.576160      0.442882
  C       8.827427      6.417750     -1.749655
  C       7.931989      4.625237     -2.806551
  C       9.453460      4.336048     -2.881725
  H       7.590074      5.167047     -3.714119
  H       7.327797      3.703356     -2.706844
  N      10.089276      5.599010     -2.334982
  H       9.831984      4.128151     -3.899110
  H       9.740139      3.500942     -2.215006
  H       9.118064      6.897573     -0.797301
  H       8.631028      7.180622     -2.531843
  C      11.202841      5.383185     -1.346311
  C      12.435044      4.733611     -1.964047
  H      10.781538      4.768375     -0.525020
  H      11.455410      6.379199     -0.928145
  C      13.566211      4.563599     -0.938729
  H      12.796762      5.358786     -2.812827
  H      12.172655      3.740749     -2.390936
  C      14.816103      3.918956     -1.540900
  H      13.195945      3.947869     -0.089281
  H      13.822669      5.557577     -0.510030
  H      14.595997      2.908618     -1.943792
  H      15.611685      3.809612     -0.778278
  H      15.227587      4.531719     -2.369521
  H      10.481225      6.143446     -3.122767
43
Coordinates from ORCA-job input E -732.555872425158
  C       1.558883      1.863704     -0.319693
  C       2.847339      1.475545     -0.210560
  H       0.742171      1.128339     -0.271210
  H       1.263814      2.916702     -0.453954
  C       4.037028      2.339506     -0.251884
  H       3.060717      0.402087     -0.066317
  C       3.972319      3.735866     -0.492892
  C       5.126079      4.519818     -0.513631
  C       6.396240      3.940036     -0.296820
  C       5.313043      1.768888     -0.042834
  C       6.473350      2.554575     -0.067128
  H       5.391808      0.686837      0.144485
  H       7.454079      2.081955      0.106539
  H       5.048692      5.601122     -0.706909
  H       2.997077      4.214048     -0.665572
  C       7.640548      4.790385     -0.327558
  N       7.791132      5.487007     -1.626830
  H       8.522368      4.149255     -0.079010
  H       7.591391      5.584821      0.446742
  C       8.825114      6.425959     -1.744925
  C       7.925676      4.637638     -2.803241
  C       9.444889      4.342807     -2.881880
  H       7.584315      5.181980     -3.709039
  H       7.318166      3.718223     -2.704688
  N      10.088325      5.603202     -2.335274
  H       9.824026      4.135953     -3.898920
  H       9.732284      3.506738     -2.217054
  H       9.121507      6.903909     -0.793799
  H       8.633088      7.187882     -2.528488
  C      11.202415      5.383296     -1.348008
  C      12.430731      4.728989     -1.965914
  H      10.776634      4.773131     -0.525838
  H      11.455630      6.379430     -0.931085
  C      13.560969      4.553097     -0.941382
  H      12.793835      5.351633     -2.815441
  H      12.163732      3.738262     -2.394227
  C      14.807784      3.904515     -1.542495
  H      13.187290      3.940127     -0.091793
  H      13.820190      5.545080     -0.510417
  H      14.585413      2.895660     -1.946909
  H      15.602816      3.790766     -0.780462
  H      15.223208      4.515259     -2.370148
  H      10.478361      6.147641     -3.123569
43
Coordinates from ORCA-job input E -732.555886383994
  C       1.560631      1.862516     -0.338152
  C       2.847552      1.476970     -0.208514
  H       0.744472      1.127023     -0.288465
  H       1.267073      2.912954     -0.491760
  C       4.037192      2.340420     -0.248550
  H       3.059044      0.405752     -0.047547
  C       3.973739      3.735583     -0.494127
  C       5.127491      4.518764     -0.514587
  C       6.396478      3.939559     -0.292774
  C       5.312090      1.770519     -0.033335
  C       6.472266      2.555409     -0.057533
  H       5.389829      0.689390      0.158339
  H       7.452257      2.083272      0.120204
  H       5.050587      5.599378     -0.710678
  H       2.999243      4.213712     -0.669744
  C       7.641055      4.789406     -0.322583
  N       7.791244      5.487195     -1.621412
  H       8.523079      4.148595     -0.075344
  H       7.593220      5.583197      0.452226
  C       8.823560      6.426075     -1.739571
  C       7.923655      4.638669     -2.798431
  C       9.442199      4.343269     -2.879599
  H       7.581220      5.184037     -3.702979
  H       7.315718      3.719876     -2.699606
  N      10.088316      5.602392     -2.334247
  H       9.819822      4.136766     -3.897089
  H       9.730447      3.506409     -2.216380
  H       9.123261      6.902946     -0.789188
  H       8.631979      7.187403     -2.523557
  C      11.203361      5.382201     -1.349086
  C      12.430801      4.728252     -1.968692
  H      10.778614      4.772978     -0.525919
  H      11.456380      6.378341     -0.932379
  C      13.562499      4.553166     -0.945715
  H      12.791970      5.350293     -2.819075
  H      12.163843      3.737411     -2.396172
  C      14.808188      3.904836     -1.548144
  H      13.189968      3.941266     -0.095174
  H      13.821800      5.545214     -0.515528
  H      14.585993      2.896032     -1.952089
  H      15.604417      3.791285     -0.787652
  H      15.222521      4.515029     -2.376409
  H      10.475408      6.147907     -3.123013
43
Coordinates from ORCA-job input E -732.555895724808
  C       1.558819      1.864465     -0.357302
  C       2.843540      1.480443     -0.205456
  H       0.742013      1.129924     -0.306248
  H       1.268169      2.912272     -0.532107
  C       4.034420      2.342063     -0.244241
  H       3.051886      0.411538     -0.026503
  C       3.973919      3.736460     -0.493202
  C       5.129021      4.517384     -0.513833
  C       6.396297      3.936634     -0.288476
  C       5.307722      1.770827     -0.024100
  C       6.469117      2.553338     -0.048618
  H       5.383091      0.690265      0.171246
  H       7.447918      2.080079      0.132252
  H       5.054167      5.597700     -0.711969
  H       3.000581      4.216249     -0.670277
  C       7.642321      4.784616     -0.317877
  N       7.791976      5.483948     -1.616069
  H       8.524181      4.142898     -0.073243
  H       7.596406      5.577265      0.458107
  C       8.821655      6.424182     -1.734236
  C       7.923134      4.636678     -2.794048
  C       9.441809      4.342657     -2.877586
  H       7.578941      5.183008     -3.697288
  H       7.315845      3.717627     -2.694993
  N      10.088703      5.600703     -2.333229
  H       9.817034      4.136555     -3.896014
  H       9.731066      3.504785     -2.216136
  H       9.123830      6.900163     -0.784303
  H       8.629324      7.185006     -2.518448
  C      11.204726      5.381216     -1.350213
  C      12.432350      4.728992     -1.971679
  H      10.782535      4.771467     -0.526206
  H      11.457676      6.377186     -0.933074
  C      13.566020      4.556434     -0.950258
  H      12.790994      5.351185     -2.822827
  H      12.166692      3.737346     -2.397844
  C      14.811298      3.909262     -1.554481
  H      13.195654      3.944983     -0.098597
  H      13.824782      5.549217     -0.521703
  H      14.589770      2.900016     -1.957438
  H      15.609114      3.797116     -0.795541
  H      15.223334      4.519379     -2.383826
  H      10.472629      6.148140     -3.122144
43
Coordinates from ORCA-job input E -732.555901991526
  C       1.555778      1.866995     -0.373559
  C       2.838229      1.484071     -0.201037
  H       0.737668      1.133976     -0.320517
  H       1.268416      2.912104     -0.569020
  C       4.030769      2.343543     -0.239553
  H       3.043313      0.417562     -0.004629
  C       3.973347      3.737569     -0.490982
  C       5.130245      4.516015     -0.512488
  C       6.396081      3.932954     -0.285205
  C       5.302668      1.770217     -0.016269
  C       6.465836      2.550059     -0.041840
  H       5.375529      0.689968      0.181961
  H       7.443506      2.075129      0.141029
  H       5.057777      5.596275     -0.712174
  H       3.001046      4.219555     -0.668072
  C       7.643850      4.778735     -0.314749
  N       7.792878      5.479806     -1.612143
  H       8.525323      4.135374     -0.073219
  H       7.599956      5.570041      0.462776
  C       8.819787      6.422206     -1.730105
  C       7.923711      4.634107     -2.791375
  C       9.443133      4.342558     -2.876708
  H       7.577734      5.181318     -3.693453
  H       7.317676      3.714153     -2.692501
  N      10.089281      5.599692     -2.332486
  H       9.815861      4.137038     -3.896223
  H       9.733328      3.503622     -2.216944
  H       9.123231      6.897472     -0.780207
  H       8.626309      7.182752     -2.514321
  C      11.205952      5.381000     -1.351112
  C      12.434190      4.730566     -1.974022
  H      10.786348      4.769860     -0.526782
  H      11.459249      6.376572     -0.933115
  C      13.569456      4.560070     -0.953779
  H      12.790975      5.353462     -2.825448
  H      12.169804      3.738218     -2.399374
  C      14.814689      3.913983     -1.559706
  H      13.201008      3.948376     -0.101436
  H      13.827826      5.553546     -0.526542
  H      14.593533      2.904323     -1.961937
  H      15.613785      3.803061     -0.801862
  H      15.224589      4.524437     -2.389915
  H      10.470811      6.149329     -3.120985
43
Coordinates from ORCA-job input E -732.555904376021
  C       1.554264      1.868031     -0.379878
  C       2.835646      1.485609     -0.197315
  H       0.735193      1.136044     -0.325350
  H       1.268615      2.911697     -0.585938
  C       4.029102      2.344007     -0.236498
  H       3.039221      0.420415      0.008063
  C       3.972983      3.738086     -0.488775
  C       5.130862      4.515339     -0.511562
  C       6.396281      3.930943     -0.284445
  C       5.300576      1.769480     -0.012930
  C       6.464764      2.548079     -0.039801
  H       5.372370      0.689261      0.186286
  H       7.442009      2.072211      0.143164
  H       5.059539      5.595601     -0.711932
  H       3.000983      4.221253     -0.664868
  C       7.644902      4.775519     -0.314666
  N       7.793261      5.477791     -1.611344
  H       8.526018      4.130844     -0.075115
  H       7.602427      5.565921      0.463911
  C       8.818701      6.421597     -1.728987
  C       7.924262      4.633425     -2.791518
  C       9.444308      4.343331     -2.877616
  H       7.577548      5.181239     -3.692998
  H       7.319067      3.712775     -2.693310
  N      10.089527      5.600026     -2.332586
  H       9.815879      4.138481     -3.897762
  H       9.734961      3.503753     -2.218784
  H       9.122115      6.896483     -0.778839
  H       8.624716      7.182196     -2.513052
  C      11.206302      5.381405     -1.351516
  C      12.434997      4.731654     -1.974682
  H      10.787433      4.769185     -0.527532
  H      11.459889      6.376659     -0.932811
  C      13.570410      4.561250     -0.954543
  H      12.791675      5.355246     -2.825778
  H      12.170938      3.739290     -2.400391
  C      14.815915      3.915595     -1.560879
  H      13.202312      3.948916     -0.102409
  H      13.828680      5.554791     -0.527215
  H      14.594771      2.905906     -1.963265
  H      15.615122      3.804804     -0.803029
  H      15.225369      4.526544     -2.391058
  H      10.470566      6.150987     -3.120477
43
Coordinates from ORCA-job input E -732.555905169766
  C       1.553903      1.868371     -0.379996
  C       2.835046      1.485878     -0.195426
  H       0.734347      1.136931     -0.324723
  H       1.268727      2.911683     -0.588682
  C       4.028760      2.343956     -0.235395
  H       3.038355      0.421046      0.012199
  C       3.972780      3.738180     -0.487435
  C       5.130903      4.515159     -0.511090
  C       6.396436      3.930318     -0.284931
  C       5.300265      1.769007     -0.012806
  C       6.464773      2.547329     -0.040493
  H       5.371937      0.688713      0.186207
  H       7.442021      2.071106      0.141755
  H       5.059819      5.595494     -0.711344
  H       3.000727      4.221687     -0.662417
  C       7.645316      4.774540     -0.315660
  N       7.793348      5.477223     -1.612027
  H       8.526174      4.129165     -0.076753
  H       7.603449      5.564629      0.463333
  C       8.818509      6.421560     -1.729463
  C       7.924724      4.633342     -2.792509
  C       9.445087      4.343907     -2.878655
  H       7.577917      5.181242     -3.693928
  H       7.319976      3.712284     -2.694748
  N      10.089564      5.600616     -2.332882
  H       9.816493      4.139536     -3.898966
  H       9.735928      3.504171     -2.220076
  H       9.121336      6.896409     -0.779065
  H       8.624338      7.182306     -2.513356
  C      11.206197      5.381861     -1.351506
  C      12.435101      4.732234     -1.974481
  H      10.787141      4.769103     -0.527976
  H      11.459775      6.376996     -0.932503
  C      13.570084      4.561151     -0.954042
  H      12.792286      5.356278     -2.825106
  H      12.170936      3.740160     -2.400894
  C      14.815888      3.915693     -1.560245
  H      13.201714      3.948182     -0.102426
  H      13.828329      5.554445     -0.526037
  H      14.594697      2.906169     -1.963115
  H      15.614734      3.804590     -0.802021
  H      15.225612      4.527084     -2.390010
  H      10.471029      6.151933     -3.120338
