43
Coordinates from ORCA-job input E -732.555905169766
  C           1.55390315014209      1.86837129207385     -0.37999637069059
  C           2.83504611642187      1.48587822628292     -0.19542583339614
  H           0.73434653343969      1.13693107165698     -0.32472312658410
  H           1.26872696262054      2.91168328248136     -0.58868214602730
  C           4.02875950986026      2.34395599803439     -0.23539468615966
  H           3.03835525428408      0.42104601335092      0.01219907348915
  C           3.97277994789859      3.73817992829403     -0.48743536553255
  C           5.13090266726533      4.51515913618603     -0.51108971592647
  C           6.39643636065235      3.93031843470560     -0.28493079363899
  C           5.30026459846450      1.76900660829430     -0.01280605205936
  C           6.46477264040918      2.54732896546531     -0.04049276712447
  H           5.37193693933315      0.68871292287076      0.18620693128034
  H           7.44202057053733      2.07110630086339      0.14175532333587
  H           5.05981902596194      5.59549352057289     -0.71134443873370
  H           3.00072671795950      4.22168721753551     -0.66241690967512
  C           7.64531634570568      4.77454027774222     -0.31566036199930
  N           7.79334839959654      5.47722339594533     -1.61202677071965
  H           8.52617394614182      4.12916457927725     -0.07675281382470
  H           7.60344891111036      5.56462874256472      0.46333307928625
  C           8.81850904964959      6.42155968042920     -1.72946270333533
  C           7.92472416151837      4.63334240971980     -2.79250936138892
  C           9.44508724069735      4.34390664941072     -2.87865456150360
  H           7.57791716261911      5.18124248375381     -3.69392831784083
  H           7.31997646572232      3.71228399903382     -2.69474765198113
  N          10.08956423477329      5.60061599326657     -2.33288241639033
  H           9.81649257052901      4.13953583401612     -3.89896645415016
  H           9.73592839056986      3.50417142285982     -2.22007647441922
  H           9.12133558627769      6.89640920743271     -0.77906501705280
  H           8.62433759462103      7.18230594763333     -2.51335567881763
  C          11.20619714447933      5.38186076481167     -1.35150575847317
  C          12.43510127216179      4.73223411423761     -1.97448067195561
  H          10.78714130183696      4.76910349605659     -0.52797640579698
  H          11.45977543003028      6.37699636823640     -0.93250269381700
  C          13.57008392026917      4.56115121318602     -0.95404247659942
  H          12.79228563902909      5.35627808873380     -2.82510589222712
  H          12.17093588433061      3.74015995469067     -2.40089394336342
  C          14.81588810899042      3.91569271709133     -1.56024468285485
  H          13.20171403455442      3.94818246500798     -0.10242574343724
  H          13.82832852997513      5.55444525728498     -0.52603663434450
  H          14.59469723011254      2.90616909409993     -1.96311458699134
  H          15.61473350897247      3.80458964144139     -0.80202060105627
  H          15.22561221144882      4.52708436960831     -2.39000960106949
  H          10.47102872903290      6.15193291368601     -3.12033792636926
