324
Coordinates from ORCA-job input E -9763.336754464115
  C      -3.132417      9.146306      1.853586
  C      -4.462875      9.321274      2.225701
  C      -5.243530      8.241194      2.581162
  C      -4.712017      6.954271      2.580416
  C      -3.371803      6.781725      2.242654
  C      -2.593441      7.862184      1.881451
  H      -1.552236      7.717131      1.629063
  H      -2.942313      5.789744      2.263642
  H      -4.887230     10.314616      2.215019
  H      -6.278253      8.390561      2.854178
  C      -5.548807      5.787280      2.972448
  Cl     -5.360658      5.454991      4.741664
  H      -5.242896      4.870791      2.469371
  H      -6.610749      5.972294      2.817683
  C      -1.205448     11.615272     -0.220617
  C      -0.971323     12.628495      0.696341
  C      -1.884666     10.457295      0.123682
  C      -1.389853     12.471787      2.012893
  C      -2.330828     10.313395      1.440457
  H      -0.868933     11.746710     -1.240816
  C      -2.061994     11.313041      2.367888
  H      -2.403314     11.181917      3.386198
  C      -2.280372      9.467306     -0.944742
  C      -3.749063      9.678731     -1.208766
  H      -2.104619      8.440425     -0.624878
  H      -1.698722      9.656063     -1.850357
  C      -4.703736      8.707018     -0.936249
  C      -6.045534      9.007875     -1.041947
  C      -6.484325     10.290741     -1.380514
  C      -5.525835     11.257553     -1.709531
  C      -4.182864     10.924536     -1.637691
  H      -4.397245      7.720644     -0.617535
  H      -6.782023      8.253573     -0.802967
  H      -3.449260     11.681547     -1.878563
  C      -7.925018     10.569432     -1.356115
  C      -8.816312      9.743005     -2.046852
  C     -10.171715      9.983401     -2.018736
  C     -10.690857     11.055992     -1.291356
  C      -8.450329     11.627885     -0.607221
  C      -9.807178     11.862960     -0.572903
  H      -8.426441      8.916783     -2.624429
  H     -10.846436      9.339403     -2.565446
  H      -7.784712     12.250064     -0.026052
  H     -10.196423     12.679994      0.018447
  C     -12.153406     11.300105     -1.243541
  Cl    -12.919293     10.303971      0.075170
  H     -12.657907     10.993149     -2.158443
  H     -12.395301     12.332957     -0.998592
  C      -1.140175     13.566283      3.012499
  C       0.090974     14.363120      2.696347
  H      -1.078009     13.149525      4.020924
  H      -1.989467     14.262306      3.002446
  C      -0.332749     13.915746      0.271711
  C       0.472872     14.543278      1.370363
  H      -1.135727     14.610745     -0.003297
  H       0.285798     13.764344     -0.616190
  C       0.837056     14.964527      3.700239
  C       1.917069     15.770205      3.398203
  C       1.568852     15.332532      1.074074
  C       2.292572     15.980880      2.072892
  H       1.839804     15.482939      0.037956
  H       0.556209     14.812107      4.733462
  H       2.484220     16.229610      4.194958
  C       3.354923     16.925474      1.707120
  C       4.178160     16.699858      0.604610
  C       5.077697     17.659219      0.185464
  C       5.189730     18.874679      0.849702
  C       4.409734     19.079143      1.982092
  H       4.111962     15.762075      0.071942
  H       5.694626     17.468815     -0.682415
  C       3.508500     18.123757      2.402938
  H       4.482001     20.012102      2.522203
  H       2.886894     18.330160      3.261384
  C      -5.868220     12.663269     -2.127935
  C      -5.198875     13.685859     -1.242895
  H      -6.950077     12.815781     -2.125090
  H      -5.525383     12.819992     -3.156560
  C      -4.811838     13.374103      0.054427
  C      -4.127251     14.286440      0.830545
  C      -4.918632     14.961765     -1.719339
  C      -4.245985     15.883142     -0.939270
  C      -3.823269     15.558090      0.348010
  H      -5.016915     12.392482      0.455486
  H      -3.793891     13.985454      1.811611
  H      -5.221438     15.233336     -2.721858
  H      -4.040628     16.870120     -1.330985
  C      -3.011755     16.500137      1.140281
  C      -1.905179     17.089987      0.530608
  C      -1.029751     17.903009      1.225915
  C      -3.277653     16.799746      2.480721
  C      -2.389577     17.612293      3.173437
  C      -1.257703     18.140985      2.578546
  H      -1.717222     16.890070     -0.516272
  H      -2.595086     17.840826      4.210620
  C      -4.572146     16.420451      3.159492
  C      -5.460802     17.634010      3.082263
  H      -4.390200     16.151587      4.201857
  H      -5.057124     15.585742      2.655778
  C      -5.721057     18.428085      4.188470
  C      -6.457722     19.587665      4.049071
  C      -6.949328     19.993312      2.810204
  C      -6.688699     19.195957      1.686464
  C      -5.958430     18.031769      1.847023
  H      -5.343710     18.143806      5.160978
  H      -6.662225     20.202258      4.914805
  H      -5.743066     17.421239      0.980812
  C      -7.666193     21.276552      2.735372
  C      -8.967345     21.380288      2.247112
  C      -9.606237     22.601762      2.195807
  C      -8.970620     23.757440      2.642135
  C      -7.676749     23.653473      3.148954
  C      -7.039869     22.434065      3.201607
  H      -9.483546     20.490575      1.916840
  H      -6.032038     22.365812      3.585338
  H      -7.173702     24.544782      3.495907
  H     -10.614148     22.665833      1.809795
  C      -9.639003     25.083848      2.561708
  Cl     -9.030720     26.009553      1.125300
  H      -9.413051     25.711878      3.422851
  H     -10.715743     24.996694      2.426164
  C      -7.091932     19.624718      0.296905
  C      -6.715145     21.060196      0.051567
  H      -8.168163     19.499793      0.152912
  H      -6.588504     18.977070     -0.427520
  C      -5.460206     21.521964      0.431639
  C      -5.157958     22.866214      0.367352
  C      -6.095272     23.782249     -0.104210
  C      -7.617837     21.960441     -0.496838
  C      -7.311606     23.303889     -0.580319
  H      -4.732541     20.823880      0.822368
  H      -4.188553     23.215309      0.693488
  H      -8.587076     21.612732     -0.826961
  H      -8.043861     23.999930     -0.962217
  C      -5.860675     25.227758     -0.007289
  C      -5.355290     25.751107      1.179143
  C      -5.243098     27.116029      1.367718
  C      -6.206553     26.105037     -1.029734
  C      -6.060705     27.468561     -0.859150
  C      -5.600432     27.987084      0.341727
  H      -5.090303     25.075916      1.980722
  H      -6.584542     25.714910     -1.963721
  H      -6.329199     28.141959     -1.661773
  C      -4.780854     27.686083      2.678585
  C      -3.973075     28.934382      2.477023
  C      -4.327927     29.806373      1.450410
  C      -5.505099     29.466527      0.581493
  H      -6.419414     29.790051      1.097848
  H      -5.456386     30.009578     -0.364679
  H      -4.212371     26.943759      3.242745
  H      -5.669315     27.942053      3.272596
  C      -2.908522     29.256709      3.301780
  C      -3.609798     30.974399      1.281267
  C      -2.572647     31.328810      2.143132
  C      -2.213002     30.450187      3.170885
  H      -2.622982     28.567711      4.085571
  H      -3.880374     31.658045      0.487577
  C      -1.916464     32.628170      1.922483
  C      -1.311448     32.903085      0.694032
  C      -0.701466     34.116438      0.461339
  C      -1.921890     33.628705      2.897284
  C      -1.316521     34.844494      2.662791
  C      -0.693481     35.108355      1.443114
  H      -1.308049     32.139384     -0.071067
  H      -0.221373     34.306244     -0.488405
  H      -2.430689     33.454605      3.835155
  H      -1.327560     35.608089      3.428042
  C      -0.005359     36.402503      1.207234
  Cl      1.733926     36.290381      1.728993
  H      -0.430161     37.213796      1.796301
  H       0.028118     36.670239      0.152322
  C      -1.079337     30.730794      4.125248
  C       0.167983     18.517093      0.561533
  C      -0.266424     18.959681      3.352869
  C       0.314079     20.065120      2.516608
  H       0.546997     18.289394      3.660798
  H      -0.722200     19.362381      4.260062
  C       0.522213     19.847894      1.158509
  H       0.000613     18.611873     -0.513989
  H       1.023577     17.846335      0.701576
  C       1.092949     20.850188      0.390694
  C       0.661796     21.289042      3.066001
  C       1.240945     22.291439      2.298071
  C       1.472919     22.066079      0.939381
  H       1.255553     20.672195     -0.664283
  H       0.488472     21.473202      4.118062
  C       1.588657     23.584835      2.926229
  C       2.641538     23.691140      3.826911
  C       0.855534     24.727501      2.625862
  C       1.167529     25.943492      3.205052
  C       2.226854     26.054828      4.097112
  C       2.957700     24.910486      4.398154
  H       3.788641     24.976546      5.087318
  H       3.225088     22.813846      4.067210
  H       0.024492     24.658877      1.937317
  H       0.581152     26.815442      2.954326
  C       2.566998     27.369191      4.767610
  C       0.788692     29.044996      4.319865
  C       0.917488     30.682224      2.598087
  C       0.222632     30.126837      3.665727
  H      -1.334735     30.325372      5.107163
  H      -0.930499     31.806404      4.223782
  C       2.053111     28.557716      4.003785
  C       2.791753     29.194083      3.000161
  C       2.176268     30.222482      2.281033
  H       0.486443     31.501510      2.043068
  H       2.711744     30.678612      1.460790
  H       0.245297     28.576558      5.130561
  H       3.648588     27.438340      4.903712
  H       2.110718     27.361964      5.763866
  C       4.225990     28.958762      2.756059
  C       4.837236     27.710550      2.678328
  C       6.211749     27.608395      2.537435
  C       7.006773     28.738262      2.422002
  C       6.395255     29.989531      2.428043
  C       5.032785     30.089964      2.624517
  H       4.240849     26.811881      2.715045
  H       6.671444     26.630198      2.509494
  H       4.583603     31.070685      2.691255
  C       6.113895     19.948090      0.335095
  C       5.581058     21.321466      0.644766
  H       6.209494     19.838390     -0.750088
  H       7.110827     19.815275      0.762494
  C       6.296990     22.273799      1.372969
  C       5.724306     23.524433      1.587273
  C       4.443392     23.812702      1.156409
  C       4.306336     21.635067      0.198322
  C       3.708054     22.854607      0.472709
  H       3.751900     20.884529     -0.347093
  H       6.284887     24.265320      2.139146
  H       4.009198     24.780142      1.362040
  C       2.257191     23.057227      0.115010
  H       2.098591     22.861288     -0.947726
  H       1.957656     24.082157      0.333654
  C       7.636242     21.979025      1.917432
  C       7.826875     20.926372      2.810707
  C       9.087802     20.626321      3.284836
  C      10.193084     21.365099      2.878983
  C       9.999058     22.432993      2.014134
  C       8.736252     22.740077      1.540897
  H       6.977429     20.343191      3.136676
  H       9.224225     19.802517      3.971111
  H      10.846258     23.023552      1.692919
  H       8.599892     23.563297      0.853328
  C      11.556213     21.023029      3.418230
  C      11.646105     21.532399      4.835934
  H      12.328237     21.496320      2.807315
  H      11.695164     19.942609      3.387625
  C      11.718042     22.904640      5.035071
  C      11.714073     23.453937      6.302350
  C      11.633344     22.615512      7.414522
  C      11.554315     21.250588      7.225953
  C      11.564309     20.690913      5.947724
  C      11.496204     19.224871      5.831244
  H      11.503041     20.590589      8.081554
  H      11.773012     23.557438      4.174777
  C      12.516222     18.496722      5.215777
  C      12.449510     17.122231      5.134346
  C      11.362571     16.429084      5.665619
  C      10.343843     17.154152      6.281877
  C      10.415614     18.528272      6.372547
  H      13.375730     19.019863      4.820851
  H      13.247239     16.570878      4.656742
  H       9.491752     16.630195      6.691458
  H       9.620456     19.081796      6.851862
  C      11.277184     14.949903      5.544428
  Cl     10.525410     14.497372      3.955335
  H      10.637219     14.508077      6.306614
  H      12.257960     14.476488      5.546156
  C      11.672841     23.254991      8.774902
  C      12.725805     24.327533      8.778324
  H      11.863623     22.513500      9.552442
  H      10.695411     23.713023      8.977275
  C      12.810747     25.158432      7.659988
  C      11.827711     24.929568      6.546716
  H      12.128256     25.458549      5.641149
  H      10.847877     25.316955      6.854528
  C      13.629763     24.503304      9.815208
  C      14.600590     25.482676      9.745929
  C      14.710276     26.310538      8.624034
  C      13.793518     26.120948      7.583166
  H      13.868175     26.720561      6.687573
  H      15.274430     25.618541     10.578861
  H      13.570448     23.867613     10.688608
  C      15.749862     27.326664      8.509836
  C      16.996829     27.188747      9.129774
  C      17.968648     28.148374      8.964480
  C      15.535079     28.473955      7.736512
  C      16.508293     29.430973      7.541553
  C      17.759304     29.270826      8.161069
  H      18.927074     28.026768      9.451269
  H      17.210799     26.312623      9.723369
  H      14.564468     28.625226      7.290990
  C      18.842594     30.272947      8.013621
  Cl     18.529381     31.730934      9.063687
  H      18.928992     30.671778      7.004236
  H      19.802688     29.884326      8.349501
  C      16.242416     30.638367      6.670210
  C      14.872290     30.646156      6.058164
  H      16.989706     30.658328      5.869375
  H      16.379601     31.540514      7.272838
  C      14.614185     29.955874      4.878579
  C      13.354588     29.963553      4.311366
  C      12.311487     30.672741      4.903510
  C      12.566415     31.342721      6.099273
  C      13.824657     31.325741      6.667311
  H      15.414729     29.409529      4.398446
  C      10.995922     30.774938      4.257044
  C      10.386301     29.687022      3.634331
  C      10.347292     32.008129      4.231650
  C       9.171088     29.824655      2.982915
  C       8.546167     31.069928      2.951540
  C       9.134889     32.150291      3.589069
  H      10.865989     28.718454      3.669041
  H      10.812508     32.864881      4.696480
  H       8.644417     33.113590      3.568850
  C       7.247259     31.205998      2.216087
  H       6.719042     32.110570      2.522375
  H       7.460260     31.293926      1.141988
  C       8.503052     28.672830      2.277980
  H       8.751939     28.734426      1.209668
  H       8.883872     27.718982      2.648536
  H      14.001359     31.849395      7.596388
  H      11.764031     31.871676      6.593156
  H      13.181411     29.440638      3.381351
324
Coordinates from ORCA-job input E -9763.398436126765
  C      -3.140243      9.151261      1.894672
  C      -4.478135      9.333768      2.269259
  C      -5.267681      8.252861      2.639245
  C      -4.739717      6.956795      2.650715
  C      -3.392604      6.775178      2.312284
  C      -2.604631      7.856585      1.936731
  H      -1.555745      7.703031      1.682669
  H      -2.962963      5.773469      2.343626
  H      -4.903636     10.335092      2.251087
  H      -6.310662      8.410660      2.913663
  C      -5.586312      5.794899      3.054649
  Cl     -5.412550      5.469279      4.832193
  H      -5.282505      4.867484      2.554629
  H      -6.652791      5.985385      2.885212
  C      -1.193789     11.588544     -0.230954
  C      -0.960575     12.621765      0.676968
  C      -1.879873     10.429277      0.129589
  C      -1.387011     12.485317      2.002598
  C      -2.332193     10.308579      1.458675
  H      -0.850584     11.705190     -1.260403
  C      -2.064465     11.327497      2.374990
  H      -2.412513     11.212211      3.402500
  C      -2.274723      9.420850     -0.932978
  C      -3.747693      9.622696     -1.212551
  H      -2.097893      8.391981     -0.597009
  H      -1.682764      9.596726     -1.842920
  C      -4.705869      8.645715     -0.929205
  C      -6.057280      8.943541     -1.041028
  C      -6.500297     10.229018     -1.398924
  C      -5.538394     11.200071     -1.741662
  C      -4.186602     10.867791     -1.661900
  H      -4.394536      7.657590     -0.590411
  H      -6.798050      8.183937     -0.789311
  H      -3.448075     11.630627     -1.909426
  C      -7.946493     10.514404     -1.371302
  C      -8.855518      9.682503     -2.046350
  C     -10.218831      9.937059     -2.006460
  C     -10.722939     11.029383     -1.285043
  C      -8.458409     11.593477     -0.629915
  C      -9.821827     11.842898     -0.585139
  H      -8.475205      8.838454     -2.621455
  H     -10.910801      9.286232     -2.541798
  H      -7.775790     12.224017     -0.060421
  H     -10.201312     12.678737      0.003328
  C     -12.186847     11.285940     -1.216875
  Cl    -12.931433     10.314614      0.135132
  H     -12.711913     10.966490     -2.124604
  H     -12.418948     12.332208     -0.987192
  C      -1.140640     13.595090      2.990105
  C       0.096400     14.387034      2.669350
  H      -1.085635     13.190808      4.011242
  H      -1.996854     14.295351      2.965554
  C      -0.317178     13.905112      0.237352
  C       0.486266     14.548297      1.333759
  H      -1.123025     14.601653     -0.053810
  H       0.307234     13.742137     -0.652733
  C       0.846108     15.002579      3.674119
  C       1.936771     15.805006      3.362400
  C       1.590604     15.336199      1.029819
  C       2.316697     15.998708      2.027173
  H       1.867406     15.474314     -0.015787
  H       0.560299     14.861809      4.717258
  H       2.508314     16.277893      4.160154
  C       3.382327     16.940282      1.649055
  C       4.206715     16.706903      0.537817
  C       5.107829     17.672310      0.105440
  C       5.219788     18.898700      0.767978
  C       4.439941     19.107570      1.910094
  H       4.137372     15.758463      0.005888
  H       5.726769     17.477500     -0.771450
  C       3.536825     18.148330      2.341890
  H       4.511956     20.051773      2.448252
  H       2.911605     18.360152      3.208042
  C      -5.884477     12.607156     -2.173096
  C      -5.215641     13.641965     -1.291476
  H      -6.973229     12.758251     -2.171544
  H      -5.542477     12.758837     -3.209816
  C      -4.824836     13.331888      0.014468
  C      -4.136457     14.249330      0.796095
  C      -4.935580     14.926437     -1.770818
  C      -4.260379     15.855157     -0.983800
  C      -3.833514     15.528636      0.312661
  H      -5.028116     12.342650      0.416581
  H      -3.798291     13.946485      1.785628
  H      -5.240546     15.199889     -2.782037
  H      -4.054306     16.850038     -1.378839
  C      -3.017049     16.469573      1.111162
  C      -1.908773     17.070039      0.495331
  C      -1.024908     17.885955      1.192896
  C      -3.276422     16.761603      2.465356
  C      -2.377352     17.574946      3.160138
  C      -1.244505     18.113856      2.557512
  H      -1.726158     16.876138     -0.562670
  H      -2.576701     17.798758      4.209273
  C      -4.571180     16.383740      3.158152
  C      -5.460915     17.603698      3.093302
  H      -4.377780     16.109203      4.204253
  H      -5.065813     15.544252      2.657410
  C      -5.708977     18.404095      4.208236
  C      -6.444417     19.576997      4.073752
  C      -6.947508     19.989395      2.832057
  C      -6.700332     19.182184      1.696912
  C      -5.971269     18.006841      1.855884
  H      -5.320088     18.115837      5.185348
  H      -6.639034     20.197734      4.948521
  H      -5.763777     17.391517      0.980083
  C      -7.659475     21.284722      2.761497
  C      -8.968562     21.389636      2.280295
  C      -9.613640     22.617000      2.222146
  C      -8.973058     23.781789      2.654475
  C      -7.668844     23.681257      3.156980
  C      -7.026553     22.452873      3.217327
  H      -9.491177     20.490325      1.956128
  H      -6.007070     22.387793      3.596073
  H      -7.159903     24.582915      3.496872
  H     -10.632742     22.676953      1.838715
  C      -9.645248     25.109146      2.553768
  Cl     -9.047310     26.010703      1.091239
  H      -9.416391     25.756175      3.409254
  H     -10.730289     25.016340      2.428924
  C      -7.108715     19.603344      0.298020
  C      -6.721835     21.036187      0.025383
  H      -8.193479     19.484567      0.157985
  H      -6.615337     18.935220     -0.425177
  C      -5.454386     21.495984      0.396776
  C      -5.143565     22.845419      0.320161
  C      -6.082201     23.768646     -0.157730
  C      -7.626225     21.944120     -0.530665
  C      -7.310206     23.292145     -0.628038
  H      -4.724359     20.793107      0.798760
  H      -4.164087     23.193936      0.641181
  H      -8.610829     21.602530     -0.848438
  H      -8.046285     23.996016     -1.013472
  C      -5.847458     25.217191     -0.058729
  C      -5.349048     25.737250      1.141480
  C      -5.241434     27.108257      1.342943
  C      -6.188038     26.103713     -1.086269
  C      -6.044063     27.474497     -0.904905
  C      -5.593257     27.989165      0.311693
  H      -5.088330     25.051872      1.947690
  H      -6.561479     25.714569     -2.032987
  H      -6.307721     28.158593     -1.712519
  C      -4.797288     27.674188      2.668224
  C      -3.989184     28.930008      2.488076
  C      -4.335034     29.808167      1.453217
  C      -5.502177     29.469214      0.564015
  H      -6.429757     29.790934      1.073930
  H      -5.445318     30.024203     -0.382785
  H      -4.232110     26.925777      3.241082
  H      -5.700426     27.922902      3.257090
  C      -2.932752     29.258884      3.335217
  C      -3.614461     30.983718      1.296353
  C      -2.585988     31.346580      2.176636
  C      -2.236448     30.464554      3.216930
  H      -2.653639     28.564086      4.129063
  H      -3.876852     31.664088      0.490492
  C      -1.924595     32.652761      1.963500
  C      -1.297095     32.927981      0.737743
  C      -0.676940     34.148961      0.511648
  C      -1.942911     33.660407      2.941449
  C      -1.326640     34.883554      2.713155
  C      -0.681265     35.146180      1.496922
  H      -1.282200     32.156931     -0.032534
  H      -0.177900     34.338500     -0.439046
  H      -2.469014     33.486315      3.879980
  H      -1.347998     35.654592      3.483852
  C       0.020751     36.440498      1.270960
  Cl      1.755103     36.319374      1.819577
  H      -0.413817     37.259819      1.855334
  H       0.068191     36.711091      0.209767
  C      -1.109269     30.750702      4.184642
  C       0.167315     18.513402      0.521688
  C      -0.246526     18.931433      3.331231
  C       0.324121     20.049549      2.498002
  H       0.577314     18.256610      3.628944
  H      -0.696017     19.324837      4.253796
  C       0.522484     19.844959      1.127299
  H      -0.010088     18.615763     -0.558448
  H       1.033015     17.840950      0.647716
  C       1.083459     20.864835      0.359169
  C       0.673461     21.276570      3.059466
  C       1.244506     22.295958      2.293296
  C       1.465517     22.085265      0.918982
  H       1.237283     20.696988     -0.708146
  H       0.506735     21.450438      4.123557
  C       1.590906     23.586950      2.936645
  C       2.654283     23.690134      3.839710
  C       0.849011     24.736720      2.647849
  C       1.160088     25.955912      3.238732
  C       2.228366     26.064470      4.133220
  C       2.969926     24.913447      4.423845
  H       3.810525     24.977917      5.116048
  H       3.248133     22.806161      4.070414
  H       0.012139     24.671696      1.954425
  H       0.564684     26.834805      2.995421
  C       2.567588     27.379582      4.809003
  C       0.772530     29.062007      4.378951
  C       0.892397     30.713661      2.648782
  C       0.198358     30.150853      3.724921
  H      -1.369187     30.338707      5.169874
  H      -0.965761     31.832817      4.291553
  C       2.043976     28.573790      4.053354
  C       2.778921     29.215074      3.037953
  C       2.155861     30.251500      2.320865
  H       0.454653     31.540517      2.091744
  H       2.691381     30.713548      1.492246
  H       0.227794     28.585709      5.196426
  H       3.656899     27.447296      4.937548
  H       2.118863     27.367069      5.816060
  C       4.214487     28.974019      2.781805
  C       4.826564     27.715936      2.702750
  C       6.208295     27.612484      2.550361
  C       7.008713     28.743781      2.423996
  C       6.395220     30.002234      2.430347
  C       5.027627     30.107764      2.638761
  H       4.224823     26.810539      2.749174
  H       6.674642     26.632269      2.523848
  H       4.578186     31.098143      2.706484
  C       6.136552     19.981857      0.251735
  C       5.592877     21.352729      0.574824
  H       6.233077     19.877805     -0.840738
  H       7.142954     19.852925      0.674970
  C       6.308497     22.301146      1.321220
  C       5.730002     23.551702      1.557873
  C       4.440493     23.849800      1.134449
  C       4.306797     21.671885      0.137475
  C       3.700607     22.892947      0.435369
  H       3.746046     20.920604     -0.418395
  H       6.296795     24.281561      2.126497
  H       4.001681     24.821857      1.364493
  C       2.240569     23.091914      0.094018
  H       2.071428     22.907250     -0.976445
  H       1.936590     24.120007      0.324886
  C       7.645554     22.000968      1.875023
  C       7.823619     20.931691      2.764584
  C       9.083567     20.622632      3.256457
  C      10.201480     21.368612      2.870713
  C      10.021315     22.451586      2.007494
  C       8.758012     22.768235      1.516955
  H       6.961304     20.342274      3.075756
  H       9.209558     19.784705      3.942300
  H      10.882021     23.047427      1.700920
  H       8.630923     23.605062      0.829832
  C      11.557174     21.023729      3.431566
  C      11.634358     21.523259      4.858320
  H      12.341796     21.504097      2.829893
  H      11.701251     19.937823      3.391495
  C      11.705067     22.903061      5.058689
  C      11.691459     23.458834      6.329917
  C      11.601990     22.620906      7.451578
  C      11.522582     21.245997      7.264309
  C      11.542087     20.677180      5.979213
  C      11.472764     19.203031      5.866336
  H      11.464613     20.583656      8.128966
  H      11.767361     23.560414      4.190590
  C      12.501898     18.465396      5.258945
  C      12.432848     17.080657      5.180954
  C      11.334876     16.386778      5.707906
  C      10.307425     17.119779      6.316046
  C      10.380776     18.504559      6.403298
  H      13.372990     18.989533      4.866187
  H      13.240772     16.521839      4.707992
  H       9.443600     16.594094      6.723638
  H       9.575449     19.065211      6.877795
  C      11.246727     14.902037      5.589167
  Cl     10.507791     14.435732      3.992971
  H      10.596751     14.462486      6.354656
  H      12.233223     14.423963      5.607307
  C      11.637728     23.272659      8.813065
  C      12.695594     24.348585      8.815277
  H      11.823501     22.531706      9.602009
  H      10.653216     23.735304      9.011701
  C      12.785690     25.175864      7.684551
  C      11.806428     24.938543      6.566587
  H      12.115178     25.463236      5.654038
  H      10.818718     25.334431      6.865518
  C      13.603721     24.533614      9.858145
  C      14.584608     25.516401      9.779027
  C      14.698152     26.337371      8.643266
  C      13.777596     26.141078      7.600034
  H      13.855623     26.737909      6.691850
  H      15.264443     25.659794     10.617803
  H      13.542473     23.900217     10.744167
  C      15.752134     27.349244      8.516957
  C      16.998589     27.196674      9.140242
  C      17.994175     28.146663      8.971734
  C      15.555837     28.499267      7.732320
  C      16.551437     29.448469      7.532221
  C      17.804199     29.272916      8.159146
  H      18.957205     28.010787      9.465848
  H      17.199281     26.312708      9.743678
  H      14.581185     28.662871      7.278898
  C      18.906293     30.262668      8.008277
  Cl     18.619640     31.737342      9.050070
  H      19.000696     30.654727      6.988988
  H      19.866942     29.856363      8.344465
  C      16.302024     30.657399      6.650984
  C      14.930054     30.670693      6.037175
  H      17.055686     30.665861      5.846459
  H      16.451924     31.568155      7.250469
  C      14.666807     29.969943      4.854598
  C      13.397908     29.975755      4.286696
  C      12.350300     30.692653      4.881972
  C      12.611003     31.373553      6.080424
  C      13.878812     31.359526      6.648541
  H      15.472043     29.414126      4.372309
  C      11.026979     30.790688      4.239040
  C      10.411957     29.693120      3.618319
  C      10.371255     32.028877      4.214195
  C       9.184932     29.825520      2.969312
  C       8.553773     31.075039      2.939876
  C       9.147754     32.165284      3.574675
  H      10.898097     28.718699      3.651591
  H      10.840371     32.895488      4.678134
  H       8.649782     33.135144      3.554639
  C       7.249272     31.215883      2.210707
  H       6.721922     32.128230      2.520282
  H       7.455977     31.304786      1.127767
  C       8.507951     28.672094      2.269190
  H       8.751789     28.730145      1.191748
  H       8.891703     27.710767      2.638160
  H      14.059351     31.890618      7.583555
  H      11.803618     31.910673      6.577236
  H      13.220525     29.444316      3.351720
324
Coordinates from ORCA-job input E -9763.425682866769
  C      -3.152289      9.156529      1.942768
  C      -4.493583      9.353518      2.324296
  C      -5.295781      8.277149      2.709621
  C      -4.779622      6.969751      2.729139
  C      -3.429499      6.772514      2.385029
  C      -2.628551      7.849293      1.995014
  H      -1.575588      7.681664      1.734699
  H      -3.005259      5.760388      2.423987
  H      -4.914605     10.365188      2.300976
  H      -6.343427      8.449236      2.989004
  C      -5.639789      5.817194      3.147041
  Cl     -5.477998      5.493421      4.932195
  H      -5.345939      4.879266      2.646296
  H      -6.709192      6.017670      2.965227
  C      -1.177405     11.545892     -0.238958
  C      -0.941135     12.602612      0.652388
  C      -1.874800     10.390586      0.141646
  C      -1.376656     12.494608      1.985378
  C      -2.333065     10.299727      1.480288
  H      -0.827509     11.640797     -1.276596
  C      -2.063379     11.341557      2.379442
  H      -2.417562     11.247929      3.415040
  C      -2.274078      9.363757     -0.910187
  C      -3.750162      9.555976     -1.210640
  H      -2.098581      8.333664     -0.556608
  H      -1.668973      9.521608     -1.822445
  C      -4.713995      8.577858     -0.916938
  C      -6.072874      8.875785     -1.037032
  C      -6.516683     10.162647     -1.414528
  C      -5.549091     11.134756     -1.770114
  C      -4.190971     10.798819     -1.681652
  H      -4.401352      7.590404     -0.553695
  H      -6.818875      8.115288     -0.771417
  H      -3.446152     11.565595     -1.931831
  C      -7.968413     10.457481     -1.381530
  C      -8.895762      9.623818     -2.040746
  C     -10.264971      9.892781     -1.987265
  C     -10.752894     11.001723     -1.270342
  C      -8.465209     11.555050     -0.645618
  C      -9.833791     11.819725     -0.589379
  H      -8.526941      8.764547     -2.615089
  H     -10.973303      9.237018     -2.510798
  H      -7.766030     12.191104     -0.087814
  H     -10.201596     12.671818     -0.002465
  C     -12.219223     11.270642     -1.179343
  Cl    -12.948318     10.330286      0.206771
  H     -12.763857     10.940811     -2.079802
  H     -12.439507     12.330854     -0.971730
  C      -1.131841     13.625143      2.953837
  C       0.113257     14.408462      2.628543
  H      -1.089189     13.241028      3.989888
  H      -1.993023     14.330261      2.909501
  C      -0.286512     13.878442      0.193838
  C       0.515121     14.541683      1.285404
  H      -1.091306     14.578754     -0.120618
  H       0.343905     13.698765     -0.696510
  C       0.864726     15.040958      3.631337
  C       1.967572     15.835376      3.310301
  C       1.629357     15.325208      0.973619
  C       2.356358     16.006106      1.967214
  H       1.914206     15.445816     -0.079814
  H       0.571286     14.917126      4.682482
  H       2.541493     16.323194      4.107370
  C       3.423594     16.948337      1.577245
  C       4.248350     16.713228      0.457728
  C       5.143523     17.688815      0.010870
  C       5.251324     18.926350      0.668915
  C       4.472553     19.134852      1.822133
  H       4.179421     15.755840     -0.073664
  H       5.762339     17.492809     -0.875312
  C       3.573619     18.167147      2.265894
  H       4.536056     20.091303      2.355594
  H       2.942190     18.382383      3.136486
  C      -5.890463     12.545084     -2.212187
  C      -5.226027     13.593083     -1.331840
  H      -6.984965     12.698165     -2.219996
  H      -5.544830     12.692300     -3.254956
  C      -4.839873     13.290670     -0.013995
  C      -4.150275     14.215022      0.771107
  C      -4.940729     14.882210     -1.816962
  C      -4.266304     15.819383     -1.025494
  C      -3.842701     15.498300      0.281984
  H      -5.042806     12.294809      0.392011
  H      -3.812285     13.915542      1.770159
  H      -5.240111     15.153154     -2.838742
  H      -4.054905     16.818236     -1.427982
  C      -3.019624     16.438655      1.082860
  C      -1.910437     17.046925      0.459723
  C      -1.017681     17.867435      1.154732
  C      -3.270137     16.724188      2.448517
  C      -2.358082     17.537000      3.141900
  C      -1.226416     18.085945      2.530146
  H      -1.732629     16.851604     -0.606497
  H      -2.549561     17.758431      4.201183
  C      -4.566428     16.351948      3.155000
  C      -5.463039     17.573987      3.103525
  H      -4.361024     16.073079      4.204366
  H      -5.068417     15.504099      2.661646
  C      -5.699449     18.379663      4.225255
  C      -6.433045     19.564158      4.095307
  C      -6.947684     19.982750      2.853327
  C      -6.716573     19.166906      1.709843
  C      -5.988871     17.981881      1.866251
  H      -5.298212     18.089035      5.205335
  H      -6.616994     20.190606      4.977637
  H      -5.788782     17.364847      0.980314
  C      -7.651658     21.290484      2.785021
  C      -8.968664     21.401978      2.309395
  C      -9.611571     22.639361      2.241976
  C      -8.957850     23.809817      2.658971
  C      -7.646185     23.703929      3.158044
  C      -7.007007     22.465303      3.227443
  H      -9.501472     20.496811      1.991729
  H      -5.977470     22.398673      3.600572
  H      -7.125493     24.611532      3.489135
  H     -10.639537     22.701115      1.860470
  C      -9.621815     25.144780      2.536238
  Cl     -9.032633     26.026322      1.049551
  H      -9.385176     25.807182      3.386291
  H     -10.715450     25.055407      2.426872
  C      -7.130755     19.581569      0.305265
  C      -6.727184     21.007963     -0.000072
  H      -8.224558     19.474865      0.171807
  H      -6.656131     18.886818     -0.415133
  C      -5.444079     21.462584      0.353196
  C      -5.120569     22.815749      0.261812
  C      -6.061585     23.749071     -0.213467
  C      -7.633060     21.924583     -0.555711
  C      -7.305347     23.276095     -0.668727
  H      -4.711892     20.754224      0.762082
  H      -4.127421     23.161000      0.571890
  H      -8.636303     21.591348     -0.850462
  H      -8.047861     23.989143     -1.045822
  C      -5.825022     25.201818     -0.110388
  C      -5.329591     25.718240      1.100873
  C      -5.229809     27.094685      1.317645
  C      -6.166865     26.099542     -1.137666
  C      -6.027074     27.476507     -0.943467
  C      -5.581906     27.986493      0.285595
  H      -5.069136     25.022523      1.908458
  H      -6.539420     25.713310     -2.094604
  H      -6.289682     28.171341     -1.752638
  C      -4.804220     27.655486      2.656418
  C      -4.001235     28.923452      2.503312
  C      -4.340101     29.808885      1.462697
  C      -5.497047     29.467752      0.554276
  H      -6.437852     29.785015      1.058706
  H      -5.437422     30.038104     -0.390657
  H      -4.241992     26.901277      3.236517
  H      -5.722150     27.889643      3.241896
  C      -2.956100     29.260122      3.372631
  C      -3.620230     30.995100      1.322506
  C      -2.603460     31.365984      2.222361
  C      -2.262355     30.478222      3.272450
  H      -2.681399     28.558213      4.172605
  H      -3.872539     31.674140      0.502652
  C      -1.942362     32.681287      2.019292
  C      -1.296833     32.962437      0.797080
  C      -0.671051     34.191850      0.580872
  C      -1.973620     33.691449      3.002799
  C      -1.350314     34.922331      2.784499
  C      -0.686747     35.189408      1.572732
  H      -1.270516     32.187986      0.019931
  H      -0.156252     34.384909     -0.369649
  H      -2.513119     33.512684      3.941431
  H      -1.381533     35.696213      3.562906
  C       0.028258     36.485142      1.361451
  Cl      1.760023     36.357174      1.929448
  H      -0.416829     37.308707      1.944314
  H       0.082718     36.764585      0.296103
  C      -1.138849     30.762234      4.253745
  C       0.166130     18.511616      0.474262
  C      -0.220219     18.903996      3.299054
  C       0.338887     20.034929      2.468593
  H       0.614554     18.225556      3.585335
  H      -0.659096     19.286553      4.238649
  C       0.523605     19.844602      1.086538
  H      -0.023183     18.619840     -0.609688
  H       1.042850     17.839214      0.581993
  C       1.072355     20.882669      0.319704
  C       0.690415     21.263795      3.040635
  C       1.251044     22.300269      2.277565
  C       1.458364     22.106218      0.889396
  H       1.215462     20.726192     -0.758720
  H       0.531067     21.427032      4.115259
  C       1.594139     23.586500      2.938314
  C       2.664028     23.684022      3.846210
  C       0.845789     24.743324      2.660810
  C       1.155328     25.963362      3.266508
  C       2.228408     26.066586      4.167353
  C       2.977441     24.908202      4.446824
  H       3.824751     24.968892      5.143415
  H       3.267096     22.793180      4.064539
  H       0.004425     24.683127      1.959944
  H       0.555636     26.849850      3.029480
  C       2.567335     27.382158      4.851286
  C       0.762098     29.076045      4.444881
  C       0.874246     30.745200      2.714820
  C       0.179338     30.172002      3.794839
  H      -1.403414     30.337011      5.238878
  H      -1.004045     31.849342      4.380555
  C       2.038689     28.586268      4.108761
  C       2.770105     29.232961      3.082565
  C       2.140431     30.280597      2.373983
  H       0.432981     31.580899      2.159974
  H       2.675703     30.751174      1.540215
  H       0.216715     28.590661      5.267008
  H       3.664096     27.444670      4.972936
  H       2.128267     27.363875      5.869500
  C       4.206905     28.985223      2.811130
  C       4.819702     27.718120      2.733248
  C       6.206987     27.612808      2.567255
  C       7.013505     28.745890      2.424292
  C       6.398063     30.011295      2.427764
  C       5.026419     30.120483      2.650600
  H       4.214307     26.807378      2.795361
  H       6.681378     26.628300      2.546238
  H       4.577272     31.119248      2.718194
  C       6.155978     20.023028      0.144260
  C       5.609565     21.394247      0.479991
  H       6.248015     19.921842     -0.955381
  H       7.175476     19.899046      0.553537
  C       6.328429     22.336525      1.245895
  C       5.742629     23.586977      1.507112
  C       4.443611     23.893326      1.093953
  C       4.313233     21.720586      0.056092
  C       3.698611     22.938782      0.380579
  H       3.744303     20.969259     -0.506601
  H       6.316373     24.305336      2.096687
  H       3.999890     24.864993      1.353599
  C       2.225441     23.127167      0.063526
  H       2.041203     22.953128     -1.012961
  H       1.915595     24.158008      0.303659
  C       7.662750     22.026079      1.814492
  C       7.822509     20.942911      2.703403
  C       9.077405     20.622304      3.220180
  C      10.212226     21.369236      2.859264
  C      10.052038     22.462461      1.992801
  C       8.792488     22.791521      1.478206
  H       6.945812     20.351576      2.996818
  H       9.185961     19.774382      3.909212
  H      10.928369     23.057880      1.702520
  H       8.681762     23.637967      0.788148
  C      11.557422     21.023193      3.455375
  C      11.617751     21.520830      4.888777
  H      12.359297     21.504094      2.865207
  H      11.707893     19.931561      3.412654
  C      11.688938     22.908193      5.088052
  C      11.661691     23.473383      6.361492
  C      11.558187     22.637948      7.492339
  C      11.475725     21.255249      7.307171
  C      11.508091     20.675943      6.018475
  C      11.430648     19.195843      5.908301
  H      11.407652     20.592531      8.180315
  H      11.762324     23.567506      4.212445
  C      12.465122     18.445456      5.310725
  C      12.387211     17.053067      5.234485
  C      11.275337     16.364004      5.754163
  C      10.242925     17.108421      6.352598
  C      10.323984     18.501320      6.437334
  H      13.349620     18.966080      4.922412
  H      13.202334     16.484585      4.767470
  H       9.365158     16.585919      6.755418
  H       9.511289     19.071806      6.904868
  C      11.177018     14.875022      5.635440
  Cl     10.452351     14.397161      4.030836
  H      10.515622     14.441130      6.403790
  H      12.166049     14.388364      5.674515
  C      11.589759     23.303126      8.853704
  C      12.652127     24.382047      8.860552
  H      11.765955     22.563433      9.654815
  H      10.598397     23.769978      9.047805
  C      12.751758     25.205042      7.718955
  C      11.780693     24.957890      6.591423
  H      12.100462     25.478570      5.672717
  H      10.784754     25.364479      6.875246
  C      13.559038     24.575209      9.912454
  C      14.551731     25.557202      9.828221
  C      14.676312     26.368301      8.679702
  C      13.755137     26.169416      7.631576
  H      13.842039     26.762829      6.712547
  H      15.233905     25.705551     10.674116
  H      13.490571     23.945611     10.809840
  C      15.749573     27.370690      8.541094
  C      16.995081     27.202384      9.169902
  C      18.014493     28.138610      8.993629
  C      15.574790     28.516525      7.737644
  C      16.592925     29.452695      7.527586
  C      17.844683     29.262514      8.165582
  H      18.980246     27.989839      9.495444
  H      17.180819     26.314266      9.785855
  H      14.599299     28.689675      7.272058
  C      18.964872     30.238239      8.005656
  Cl     18.704653     31.737474      9.026918
  H      19.068472     30.613430      6.973788
  H      19.925006     29.815650      8.343885
  C      16.365493     30.659394      6.628376
  C      14.994301     30.688318      6.005220
  H      17.128989     30.648974      5.824255
  H      16.536184     31.580141      7.219102
  C      14.724245     29.977132      4.821685
  C      13.447919     29.984637      4.252037
  C      12.398016     30.713180      4.846750
  C      12.666694     31.406817      6.044617
  C      13.942202     31.392476      6.613530
  H      15.531192     29.408156      4.340191
  C      11.066671     30.807992      4.207949
  C      10.445239     29.701610      3.592261
  C      10.403438     32.050397      4.183719
  C       9.205781     29.827194      2.948814
  C       8.567777     31.080892      2.921392
  C       9.168483     32.180443      3.550379
  H      10.937290     28.721325      3.625135
  H      10.876694     32.926000      4.644378
  H       8.663837     33.155548      3.530348
  C       7.255924     31.223441      2.199508
  H       6.730320     32.144118      2.509810
  H       7.454748     31.314863      1.107833
  C       8.516119     28.670109      2.257989
  H       8.753901     28.720506      1.171401
  H       8.903918     27.701941      2.624124
  H      14.126800     31.931337      7.552366
  H      11.857101     31.955873      6.541335
  H      13.266175     29.445249      3.313640
324
Coordinates from ORCA-job input E -9763.432244034251
  C      -3.176040      9.147294      1.981054
  C      -4.502905      9.386991      2.394774
  C      -5.332810      8.334575      2.796771
  C      -4.860741      7.008103      2.800324
  C      -3.524921      6.767444      2.421425
  C      -2.695983      7.820280      2.017223
  H      -1.653987      7.617301      1.726874
  H      -3.130809      5.739521      2.451120
  H      -4.894515     10.414957      2.375807
  H      -6.369985      8.542048      3.102605
  C      -5.746647      5.882842      3.244235
  Cl     -5.555075      5.548848      5.027517
  H      -5.498841      4.935088      2.730993
  H      -6.815612      6.116912      3.085082
  C      -1.136255     11.463449     -0.237364
  C      -0.881991     12.535781      0.634674
  C      -1.864066     10.327814      0.158079
  C      -1.328970     12.460475      1.968760
  C      -2.328567     10.267232      1.499042
  H      -0.780331     11.532366     -1.278488
  C      -2.041261     11.324406      2.379992
  H      -2.395977     11.253556      3.420513
  C      -2.282488      9.294314     -0.881824
  C      -3.757905      9.489662     -1.197441
  H      -2.115124      8.262722     -0.520015
  H      -1.669293      9.433527     -1.795168
  C      -4.732007      8.522446     -0.891562
  C      -6.091108      8.832289     -1.012518
  C      -6.525955     10.121062     -1.399883
  C      -5.548476     11.082332     -1.769523
  C      -4.191226     10.731086     -1.683729
  H      -4.427154      7.538794     -0.502798
  H      -6.844975      8.082751     -0.727500
  H      -3.438019     11.495373     -1.930864
  C      -7.979092     10.429983     -1.358189
  C      -8.917845      9.608489     -2.019793
  C     -10.288096      9.885050     -1.953841
  C     -10.765980     10.990238     -1.222536
  C      -8.465608     11.525694     -0.608409
  C      -9.835401     11.800377     -0.543245
  H      -8.557358      8.752125     -2.609446
  H     -11.004898      9.234256     -2.478653
  H      -7.757374     12.155283     -0.048611
  H     -10.194709     12.650689      0.057199
  C     -12.234162     11.268141     -1.120513
  Cl    -12.974589     10.348758      0.275869
  H     -12.785012     10.942162     -2.022145
  H     -12.443365     12.336203     -0.926885
  C      -1.082185     13.613603      2.912658
  C       0.174058     14.383168      2.587859
  H      -1.061049     13.256874      3.961999
  H      -1.940251     14.325305      2.842448
  C      -0.196266     13.793470      0.158960
  C       0.599386     14.478480      1.245904
  H      -0.985436     14.501162     -0.191771
  H       0.445259     13.584879     -0.720524
  C       0.913873     15.040953      3.586135
  C       2.024728     15.827431      3.262196
  C       1.720320     15.258918      0.931507
  C       2.434070     15.969864      1.919007
  H       2.016907     15.359614     -0.124081
  H       0.603635     14.942956      4.638456
  H       2.589195     16.334408      4.058339
  C       3.491339     16.928598      1.523044
  C       4.311232     16.711116      0.393886
  C       5.183629     17.706097     -0.063861
  C       5.276094     18.950402      0.589340
  C       4.502315     19.143711      1.752808
  H       4.253480     15.750934     -0.140163
  H       5.795006     17.521305     -0.961468
  C       3.625336     18.155812      2.207850
  H       4.536243     20.111412      2.275177
  H       2.983714     18.367708      3.075415
  C      -5.871430     12.496939     -2.215014
  C      -5.221226     13.553174     -1.329483
  H      -6.967310     12.656551     -2.251491
  H      -5.507053     12.641697     -3.254654
  C      -4.867885     13.271181      0.005887
  C      -4.181802     14.203574      0.789789
  C      -4.905427     14.831008     -1.831252
  C      -4.235235     15.775510     -1.041945
  C      -3.842948     15.475491      0.282322
  H      -5.077486     12.275872      0.421730
  H      -3.859974     13.916193      1.800875
  H      -5.171464     15.085253     -2.869821
  H      -3.994479     16.763303     -1.463111
  C      -3.011167     16.417015      1.076945
  C      -1.902511     17.023333      0.445314
  C      -1.008520     17.856567      1.128676
  C      -3.253355     16.707149      2.445819
  C      -2.330845     17.518491      3.131664
  C      -1.206266     18.074775      2.508664
  H      -1.720070     16.804873     -0.618850
  H      -2.518031     17.749134      4.193210
  C      -4.554213     16.353935      3.158068
  C      -5.460564     17.571229      3.105035
  H      -4.346490     16.081232      4.211660
  H      -5.058065     15.495490      2.679066
  C      -5.689456     18.385488      4.224136
  C      -6.419795     19.574270      4.090420
  C      -6.944393     19.988056      2.849430
  C      -6.723079     19.163775      1.706962
  C      -5.995865     17.975375      1.867626
  H      -5.281859     18.099220      5.206430
  H      -6.596444     20.208073      4.972840
  H      -5.794015     17.358549      0.977812
  C      -7.651019     21.297126      2.782595
  C      -8.986105     21.404582      2.347450
  C      -9.627609     22.647008      2.279283
  C      -8.952320     23.825688      2.647856
  C      -7.623094     23.721865      3.104016
  C      -6.985901     22.480243      3.174794
  H      -9.533729     20.493277      2.063419
  H      -5.940197     22.417377      3.510992
  H      -7.078777     24.636382      3.386360
  H     -10.669708     22.706103      1.927925
  C      -9.617909     25.163852      2.534278
  Cl     -9.102492     26.045154      1.015776
  H      -9.345414     25.834753      3.370455
  H     -10.718563     25.074273      2.481082
  C      -7.129316     19.573125      0.297293
  C      -6.679497     20.978603     -0.051986
  H      -8.229637     19.502159      0.168039
  H      -6.690088     18.839822     -0.411654
  C      -5.378527     21.410861      0.277329
  C      -5.026016     22.759567      0.168053
  C      -5.959457     23.713320     -0.292281
  C      -7.572742     21.911753     -0.603323
  C      -7.220243     23.258841     -0.729186
  H      -4.656101     20.691697      0.693257
  H      -4.019878     23.088772      0.469510
  H      -8.595024     21.598225     -0.866388
  H      -7.966598     23.989848     -1.071465
  C      -5.709586     25.166975     -0.176879
  C      -5.222529     25.677575      1.043685
  C      -5.148150     27.055742      1.281814
  C      -6.068447     26.077537     -1.190753
  C      -5.953285     27.456329     -0.975870
  C      -5.514201     27.958971      0.260640
  H      -4.970771     24.973632      1.851836
  H      -6.444993     25.698341     -2.152473
  H      -6.223220     28.159886     -1.779371
  C      -4.745485     27.605781      2.633042
  C      -3.976550     28.901750      2.517444
  C      -4.325526     29.798478      1.485718
  C      -5.462034     29.440179      0.555257
  H      -6.420292     29.732213      1.049513
  H      -5.407230     30.030093     -0.381295
  H      -4.171522     26.853250      3.209132
  H      -5.676575     27.800001      3.218771
  C      -2.947827     29.249919      3.404487
  C      -3.633211     31.009574      1.378457
  C      -2.632029     31.388241      2.296428
  C      -2.275936     30.484882      3.333342
  H      -2.658620     28.534832      4.192156
  H      -3.894670     31.701713      0.564616
  C      -1.996133     32.722829      2.119793
  C      -1.364568     33.047543      0.898717
  C      -0.758011     34.294334      0.710427
  C      -2.030052     33.705957      3.132619
  C      -1.422389     34.952457      2.943730
  C      -0.773051     35.262886      1.732813
  H      -1.334399     32.293409      0.097787
  H      -0.251509     34.519844     -0.241069
  H      -2.555304     33.491394      4.075353
  H      -1.452768     35.703579      3.748449
  C      -0.067325     36.571901      1.555193
  Cl      1.675392     36.447938      2.094032
  H      -0.517556     37.374933      2.167456
  H      -0.036031     36.888721      0.496414
  C      -1.149325     30.757467      4.319269
  C       0.162245     18.516346      0.435416
  C      -0.197745     18.902629      3.266152
  C       0.350065     20.038335      2.431881
  H       0.644890     18.227850      3.549898
  H      -0.628560     19.281533      4.214187
  C       0.518987     19.853478      1.044601
  H      -0.037455     18.620599     -0.649902
  H       1.048878     17.849465      0.528775
  C       1.056354     20.899614      0.275735
  C       0.702219     21.269813      3.003077
  C       1.252445     22.313680      2.238085
  C       1.449816     22.124325      0.844996
  H       1.193671     20.745377     -0.807114
  H       0.544095     21.432768      4.081135
  C       1.597730     23.597474      2.907586
  C       2.650564     23.680135      3.840809
  C       0.870411     24.767976      2.616968
  C       1.182315     25.984052      3.237045
  C       2.233390     26.070203      4.170166
  C       2.962077     24.898333      4.459935
  H       3.798243     24.945804      5.175831
  H       3.244730     22.779942      4.061392
  H       0.041357     24.720426      1.894132
  H       0.605337     26.884441      2.983134
  C       2.571270     27.380440      4.873743
  C       0.778162     29.094149      4.500495
  C       0.883132     30.785774      2.790181
  C       0.185421     30.193769      3.861172
  H      -1.412475     30.309122      5.297527
  H      -1.030647     31.845163      4.477826
  C       2.053756     28.603020      4.151623
  C       2.781216     29.255679      3.119901
  C       2.148421     30.321024      2.434823
  H       0.443189     31.634164      2.248562
  H       2.683334     30.807699      1.606147
  H       0.238575     28.602909      5.327334
  H       3.670173     27.434876      5.006749
  H       2.129099     27.350444      5.893405
  C       4.216532     28.998336      2.823626
  C       4.826676     27.725409      2.757434
  C       6.213368     27.610866      2.571468
  C       7.025717     28.742434      2.396371
  C       6.413031     30.013531      2.387015
  C       5.041370     30.128767      2.627204
  H       4.219660     26.815385      2.854297
  H       6.685008     26.616280      2.560894
  H       4.597247     31.133256      2.693100
  C       6.158221     20.062805      0.044704
  C       5.621254     21.440036      0.381609
  H       6.230509     19.954850     -1.058740
  H       7.192655     19.946373      0.426029
  C       6.342572     22.380836      1.157728
  C       5.749445     23.633268      1.425721
  C       4.443849     23.934627      1.017183
  C       4.322583     21.768789     -0.039277
  C       3.697910     22.978574      0.300998
  H       3.750371     21.013940     -0.600568
  H       6.321973     24.355356      2.026073
  H       3.991090     24.899073      1.295754
  C       2.212457     23.146612      0.011456
  H       2.011185     22.970186     -1.064628
  H       1.896431     24.179489      0.247561
  C       7.672146     22.057575      1.743659
  C       7.812348     20.972201      2.638396
  C       9.058467     20.641405      3.178413
  C      10.208868     21.380920      2.839790
  C      10.069947     22.470391      1.960569
  C       8.818980     22.809287      1.422161
  H       6.925475     20.381660      2.913814
  H       9.145629     19.797522      3.880438
  H      10.959086     23.057080      1.679497
  H       8.729192     23.651572      0.719194
  C      11.542463     21.034416      3.473343
  C      11.587724     21.537968      4.908363
  H      12.361420     21.505771      2.893482
  H      11.694082     19.939935      3.436464
  C      11.661696     22.928781      5.109102
  C      11.619609     23.498242      6.383663
  C      11.500097     22.662132      7.516062
  C      11.410484     21.278400      7.328938
  C      11.456563     20.695662      6.040429
  C      11.356572     19.214856      5.928601
  H      11.334975     20.614637      8.204654
  H      11.746368     23.589505      4.231405
  C      12.384617     18.446494      5.338150
  C      12.283063     17.053550      5.256944
  C      11.154245     16.381223      5.766537
  C      10.129543     17.142741      6.360233
  C      10.232063     18.536720      6.446326
  H      13.284073     18.953728      4.957950
  H      13.094424     16.471486      4.792664
  H       9.236339     16.633554      6.754820
  H       9.421946     19.121460      6.907876
  C      11.029303     14.893117      5.639612
  Cl     10.309908     14.425727      4.027541
  H      10.357138     14.468019      6.407638
  H      12.012005     14.388616      5.691187
  C      11.527769     23.327324      8.879314
  C      12.587848     24.410298      8.903267
  H      11.694362     22.584875      9.683858
  H      10.531617     23.792226      9.072229
  C      12.700708     25.236022      7.761871
  C      11.745209     24.985013      6.617676
  H      12.075075     25.509252      5.700071
  H      10.743570     25.397750      6.884916
  C      13.480988     24.604592      9.969683
  C      14.482059     25.582476      9.897254
  C      14.629080     26.386305      8.745009
  C      13.712741     26.196985      7.687800
  H      13.815960     26.790015      6.766462
  H      15.159712     25.725277     10.751711
  H      13.396062     23.976912     10.870758
  C      15.720051     27.376872      8.608102
  C      16.958771     27.205398      9.257060
  C      17.991917     28.129106      9.070700
  C      15.569609     28.501981      7.768568
  C      16.602354     29.422031      7.545649
  C      17.842305     29.235524      8.212863
  H      18.953078     27.981381      9.588048
  H      17.129595     26.324130      9.892421
  H      14.604217     28.666866      7.272585
  C      18.974466     30.198977      8.043011
  Cl     18.710348     31.738823      9.004422
  H      19.104203     30.533022      6.996991
  H      19.926970     29.777086      8.411334
  C      16.405052     30.609353      6.608638
  C      15.043428     30.667315      5.959138
  H      17.184281     30.564552      5.816747
  H      16.599807     31.542735      7.177175
  C      14.766107     29.938145      4.785096
  C      13.491621     29.958906      4.204061
  C      12.447961     30.720309      4.775187
  C      12.726146     31.439125      5.959064
  C      13.999620     31.412005      6.539017
  H      15.568824     29.347369      4.315760
  C      11.116215     30.820163      4.128676
  C      10.483378     29.709491      3.526744
  C      10.454840     32.067215      4.095060
  C       9.236048     29.832050      2.890889
  C       8.600399     31.091812      2.853679
  C       9.213578     32.196574      3.467231
  H      10.967964     28.721312      3.575954
  H      10.935658     32.947883      4.545416
  H       8.712969     33.177101      3.438379
  C       7.277685     31.224378      2.143000
  H       6.756172     32.153570      2.444643
  H       7.466075     31.310265      1.045618
  C       8.530407     28.664492      2.225043
  H       8.764521     28.691620      1.133421
  H       8.920123     27.697314      2.600363
  H      14.189105     31.973683      7.467148
  H      11.922700     32.017933      6.438458
  H      13.308386     29.407936      3.269091
324
Coordinates from ORCA-job input E -9763.428304291827
  C      -3.186016      9.126243      2.016575
  C      -4.501414      9.381382      2.459614
  C      -5.339589      8.336388      2.868280
  C      -4.887177      7.001953      2.850519
  C      -3.562074      6.745729      2.440993
  C      -2.725247      7.790794      2.029885
  H      -1.690201      7.575387      1.718578
  H      -3.181287      5.710677      2.453770
  H      -4.880298     10.416927      2.450114
  H      -6.368987      8.556829      3.196682
  C      -5.778272      5.884951      3.307283
  Cl     -5.557052      5.534057      5.085073
  H      -5.556428      4.937320      2.778853
  H      -6.848595      6.133099      3.170073
  C      -1.141906     11.443272     -0.205800
  C      -0.883306     12.517096      0.664945
  C      -1.871049     10.306791      0.189004
  C      -1.328580     12.442555      2.001085
  C      -2.333001     10.244432      1.532240
  H      -0.788381     11.511665     -1.249728
  C      -2.040388     11.303816      2.412760
  H      -2.391415     11.232402      3.456319
  C      -2.298818      9.281576     -0.855561
  C      -3.776706      9.468193     -1.170218
  H      -2.122589      8.244868     -0.508747
  H      -1.687798      9.429948     -1.770976
  C      -4.747722      8.499495     -0.854211
  C      -6.109573      8.805443     -0.970433
  C      -6.551145     10.089124     -1.368802
  C      -5.578239     11.049193     -1.756644
  C      -4.218003     10.703258     -1.668806
  H      -4.438191      7.519458     -0.455608
  H      -6.861123      8.057045     -0.670970
  H      -3.467328     11.469348     -1.926908
  C      -8.006953     10.395279     -1.317658
  C      -8.948696      9.561906     -1.961191
  C     -10.321275      9.831864     -1.884399
  C     -10.798233     10.946473     -1.166164
  C      -8.491400     11.504807     -0.585395
  C      -9.863572     11.775216     -0.512872
  H      -8.589387      8.698303     -2.544077
  H     -11.039803      9.168739     -2.394762
  H      -7.779031     12.154727     -0.051264
  H     -10.220679     12.637938      0.074088
  C     -12.269292     11.215929     -1.050858
  Cl    -12.994581     10.347510      0.385046
  H     -12.827861     10.859250     -1.937936
  H     -12.481767     12.291713     -0.898448
  C      -1.069430     13.594341      2.946749
  C       0.175629     14.379407      2.611386
  H      -1.035487     13.235129      3.996616
  H      -1.932829     14.302846      2.898367
  C      -0.205901     13.778663      0.185234
  C       0.587751     14.481194      1.264170
  H      -1.001911     14.477455     -0.170723
  H       0.433477     13.573079     -0.698554
  C       0.910156     15.057828      3.601359
  C       2.008207     15.859724      3.267191
  C       1.697372     15.276840      0.939956
  C       2.407984     16.004668      1.919423
  H       1.977819     15.387502     -0.120875
  H       0.606592     14.960874      4.657505
  H       2.572550     16.375833      4.060238
  C       3.467966     16.960762      1.515444
  C       4.275469     16.743483      0.375933
  C       5.150929     17.733921     -0.088076
  C       5.260883     18.977520      0.566089
  C       4.497186     19.173065      1.737354
  H       4.208450     15.782995     -0.159902
  H       5.750511     17.546874     -0.995283
  C       3.620678     18.186578      2.202813
  H       4.536695     20.143294      2.257595
  H       2.986710     18.402639      3.077112
  C      -5.903694     12.469267     -2.180208
  C      -5.243339     13.517486     -1.293269
  H      -7.001754     12.630698     -2.207821
  H      -5.552056     12.626705     -3.223909
  C      -4.871994     13.225633      0.036438
  C      -4.175089     14.154018      0.817450
  C      -4.929665     14.798767     -1.790950
  C      -4.246271     15.737948     -1.004910
  C      -3.834410     15.429716      0.312618
  H      -5.070202     12.222315      0.447185
  H      -3.832427     13.854922      1.819104
  H      -5.207809     15.060432     -2.826315
  H      -4.007753     16.728565     -1.425169
  C      -2.996170     16.371322      1.104504
  C      -1.899181     16.994498      0.464579
  C      -1.012967     17.846128      1.138673
  C      -3.240712     16.671341      2.472894
  C      -2.320851     17.494629      3.151665
  C      -1.203670     18.062773      2.521618
  H      -1.731222     16.790472     -0.606440
  H      -2.507037     17.730482      4.214143
  C      -4.549595     16.327799      3.178301
  C      -5.486869     17.520097      3.085380
  H      -4.353512     16.083709      4.242901
  H      -5.032185     15.443475      2.722204
  C      -5.802555     18.316913      4.197963
  C      -6.551405     19.492301      4.033056
  C      -7.006693     19.910925      2.765875
  C      -6.700272     19.104638      1.631750
  C      -5.962447     17.925493      1.822534
  H      -5.449876     18.026522      5.201969
  H      -6.793674     20.113708      4.910820
  H      -5.692414     17.326656      0.936250
  C      -7.664218     21.243160      2.646301
  C      -8.941726     21.405397      2.069662
  C      -9.508071     22.678975      1.916375
  C      -8.821461     23.830061      2.352151
  C      -7.555595     23.669160      2.949288
  C      -6.987438     22.400172      3.093825
  H      -9.491360     20.517125      1.717947
  H      -5.979571     22.294927      3.526474
  H      -7.004687     24.560681      3.290839
  H     -10.505621     22.782299      1.457178
  C      -9.384212     25.202424      2.131917
  Cl     -8.568085     26.062699      0.735202
  H      -9.228121     25.859016      3.010111
  H     -10.464116     25.171686      1.889804
  C      -7.052613     19.525491      0.213057
  C      -6.628230     20.949994     -0.090054
  H      -8.145175     19.429274      0.030562
  H      -6.564048     18.812599     -0.487037
  C      -5.338646     21.404467      0.259114
  C      -5.016261     22.765183      0.191379
  C      -5.977192     23.715494     -0.222279
  C      -7.548856     21.884261     -0.594897
  C      -7.233419     23.246477     -0.662837
  H      -4.594847     20.687509      0.645483
  H      -4.017670     23.108224      0.509041
  H      -8.565332     21.551948     -0.866012
  H      -8.007888     23.973939     -0.951919
  C      -5.748007     25.173657     -0.088929
  C      -5.210516     25.676483      1.114801
  C      -5.134314     27.053829      1.365809
  C      -6.152369     26.095260     -1.077516
  C      -6.037156     27.473459     -0.851905
  C      -5.552062     27.967666      0.372077
  H      -4.884428     24.964285      1.890659
  H      -6.543082     25.723442     -2.038359
  H      -6.349346     28.184747     -1.635400
  C      -4.694882     27.590873      2.710672
  C      -3.951719     28.902307      2.598423
  C      -4.335771     29.809489      1.586098
  C      -5.491216     29.448123      0.678249
  H      -6.441329     29.737210      1.193644
  H      -5.463117     30.047067     -0.255710
  H      -4.093249     26.837312      3.260137
  H      -5.610615     27.757078      3.331967
  C      -2.915268     29.256859      3.474265
  C      -3.658937     31.032474      1.482130
  C      -2.643541     31.412371      2.386412
  C      -2.258015     30.500335      3.407095
  H      -2.602670     28.535319      4.249567
  H      -3.947805     31.737219      0.684691
  C      -2.011855     32.749759      2.203919
  C      -1.412219     33.086888      0.969004
  C      -0.811265     34.337359      0.776201
  C      -2.017320     33.723909      3.227258
  C      -1.414769     34.973648      3.033919
  C      -0.797076     35.296095      1.808850
  H      -1.402344     32.339388      0.159191
  H      -0.329043     34.571319     -0.187745
  H      -2.520713     33.501449      4.181862
  H      -1.421080     35.716281      3.849285
  C      -0.098818     36.609952      1.623971
  Cl      1.661423     36.493423      2.103023
  H      -0.536787     37.406021      2.256753
  H      -0.107886     36.940328      0.567216
  C      -1.116998     30.767458      4.378463
  C       0.151587     18.513122      0.438760
  C      -0.198833     18.906141      3.270424
  C       0.345705     20.041845      2.431231
  H       0.648729     18.237560      3.562488
  H      -0.629334     19.287195      4.219547
  C       0.508538     19.854392      1.042175
  H      -0.051066     18.610288     -0.648159
  H       1.043946     17.848463      0.525495
  C       1.032983     20.905341      0.268465
  C       0.707031     21.274533      2.998704
  C       1.249722     22.321711      2.229022
  C       1.430105     22.133459      0.832029
  H       1.158147     20.752321     -0.817868
  H       0.558378     21.437796      4.079787
  C       1.600658     23.606145      2.900109
  C       2.631608     23.676037      3.861144
  C       0.900307     24.790380      2.590440
  C       1.220106     26.004686      3.214189
  C       2.247583     26.076299      4.176969
  C       2.947819     24.890905      4.486922
  H       3.767282     24.925220      5.225284
  H       3.206615     22.766053      4.097811
  H       0.083880     24.753965      1.850121
  H       0.662319     26.915716      2.946602
  C       2.593464     27.384238      4.885822
  C       0.820736     29.116877      4.538209
  C       0.913045     30.817215      2.836938
  C       0.221736     30.220352      3.910113
  H      -1.367162     30.308495      5.356979
  H      -1.006639     31.855301      4.553042
  C       2.089673     28.618440      4.173308
  C       2.813350     29.274740      3.136768
  C       2.175784     30.350819      2.468781
  H       0.469926     31.669880      2.300504
  H       2.704373     30.842735      1.637191
  H       0.289015     28.625053      5.372096
  H       3.693250     27.428911      5.030571
  H       2.147906     27.353654      5.905547
  C       4.246850     29.013200      2.820069
  C       4.857234     27.737819      2.758156
  C       6.242424     27.617786      2.556377
  C       7.057441     28.749221      2.366382
  C       6.445344     30.023054      2.350898
  C       5.073866     30.140158      2.600114
  H       4.250118     26.827520      2.866725
  H       6.709387     26.616395      2.550289
  H       4.633402     31.147866      2.667917
  C       6.132663     20.087871     -0.002044
  C       5.608231     21.471447      0.328101
  H       6.183617     19.966573     -1.106906
  H       7.177292     19.972847      0.357023
  C       6.333685     22.416754      1.100534
  C       5.737873     23.673476      1.361608
  C       4.425681     23.965000      0.960378
  C       4.307785     21.797790     -0.090988
  C       3.677128     23.003300      0.252311
  H       3.733825     21.037123     -0.646725
  H       6.309779     24.407029      1.955896
  H       3.968958     24.928533      1.238701
  C       2.184401     23.153382     -0.013393
  H       1.967381     22.968801     -1.086809
  H       1.863324     24.187984      0.215243
  C       7.667076     22.090352      1.682205
  C       7.809409     20.999358      2.572235
  C       9.055163     20.669117      3.117058
  C      10.207112     21.414879      2.790987
  C      10.066585     22.508705      1.915231
  C       8.815706     22.846945      1.371889
  H       6.922300     20.403533      2.841904
  H       9.140731     19.819267      3.814761
  H      10.956675     23.099894      1.639747
  H       8.727082     23.695440      0.673604
  C      11.539238     21.071671      3.434790
  C      11.583081     21.563125      4.875196
  H      12.361514     21.547796      2.860263
  H      11.698917     19.977453      3.388552
  C      11.656653     22.953586      5.092360
  C      11.610281     23.511455      6.373770
  C      11.488368     22.661682      7.497878
  C      11.400589     21.279400      7.294556
  C      11.449647     20.709092      6.000090
  C      11.347710     19.228336      5.872820
  H      11.323901     20.605421      8.164494
  H      11.744434     23.624910      4.220672
  C      12.377226     18.461996      5.279771
  C      12.270164     17.069554      5.179685
  C      11.134935     16.394925      5.674028
  C      10.110108     17.153650      6.272697
  C      10.216788     18.547490      6.375310
  H      13.283469     18.970255      4.912622
  H      13.083039     16.489934      4.711027
  H       9.210958     16.642996      6.656485
  H       9.404005     19.130508      6.838218
  C      11.003428     14.908461      5.525356
  Cl     10.291102     14.460960      3.904345
  H      10.328577     14.475674      6.288990
  H      11.985287     14.399131      5.579399
  C      11.511161     23.309646      8.869759
  C      12.557819     24.405175      8.918050
  H      11.679135     22.557139      9.666818
  H      10.507831     23.760359      9.070443
  C      12.676490     25.243578      7.784885
  C      11.733341     24.997043      6.627315
  H      12.064158     25.536952      5.716628
  H      10.726116     25.404764      6.888837
  C      13.437041     24.596511      9.997678
  C      14.434690     25.580917      9.946580
  C      14.591001     26.395543      8.802734
  C      13.684415     26.212753      7.733732
  H      13.796475     26.813872      6.817006
  H      15.102831     25.719006     10.811348
  H      13.347533     23.956601     10.891697
  C      15.691573     27.382476      8.678821
  C      16.918494     27.216314      9.356126
  C      17.956041     28.139073      9.176713
  C      15.557407     28.498739      7.823140
  C      16.595494     29.414737      7.606103
  C      17.822877     29.234237      8.300753
  H      18.909318     27.996725      9.713172
  H      17.075652     26.343010     10.008516
  H      14.598386     28.664388      7.311479
  C      18.961571     30.193004      8.135604
  Cl     18.682636     31.758502      9.051246
  H      19.119854     30.497241      7.082727
  H      19.905536     29.775404      8.534078
  C      16.423136     30.581595      6.638670
  C      15.073230     30.655902      5.963920
  H      17.217761     30.511237      5.861417
  H      16.631014     31.524868      7.189211
  C      14.792478     29.903933      4.803457
  C      13.524301     29.937085      4.205474
  C      12.487095     30.733028      4.744382
  C      12.769022     31.475864      5.914227
  C      14.036017     31.436878      6.510840
  H      15.590320     29.288605      4.353785
  C      11.160764     30.839052      4.082432
  C      10.522836     29.727017      3.485498
  C      10.504781     32.090554      4.032293
  C       9.274680     29.849171      2.847725
  C       8.642106     31.113702      2.798450
  C       9.263305     32.221180      3.401320
  H      11.002186     28.734209      3.545504
  H      10.991644     32.975200      4.472172
  H       8.767496     33.205752      3.363242
  C       7.311783     31.234490      2.096459
  H       6.790615     32.168169      2.390671
  H       7.492567     31.316894      0.995709
  C       8.563281     28.673980      2.196708
  H       8.799366     28.685675      1.103321
  H       8.955753     27.708779      2.578926
  H      14.226193     32.020765      7.427058
  H      11.971790     32.084238      6.370554
  H      13.342848     29.370086      3.277806
324
Coordinates from ORCA-job input E -9763.433810627517
  C      -3.189505      9.120387      2.019049
  C      -4.503413      9.376853      2.463707
  C      -5.341668      8.333207      2.873028
  C      -4.890337      6.999056      2.855274
  C      -3.566573      6.741730      2.443882
  C      -2.729914      7.785267      2.031350
  H      -1.695364      7.569351      1.721405
  H      -3.187088      5.706965      2.455689
  H      -4.880940     10.411994      2.452934
  H      -6.369948      8.554330      3.202029
  C      -5.780687      5.883100      3.314320
  Cl     -5.555275      5.534568      5.091216
  H      -5.560916      4.935408      2.786328
  H      -6.850839      6.131151      3.180189
  C      -1.145598     11.444876     -0.194420
  C      -0.887825     12.516237      0.678193
  C      -1.872568     10.307078      0.197075
  C      -1.332503     12.438263      2.013776
  C      -2.336058     10.240588      1.539019
  H      -0.792570     11.515907     -1.237641
  C      -2.043333     11.297991      2.421979
  H      -2.394457     11.224117      3.464648
  C      -2.301298      9.287544     -0.851290
  C      -3.779147      9.473788     -1.161124
  H      -2.121504      8.249193     -0.513338
  H      -1.693542      9.442985     -1.767162
  C      -4.748923      8.505194     -0.843592
  C      -6.110228      8.810717     -0.957548
  C      -6.552755     10.092919     -1.357090
  C      -5.581688     11.052098     -1.747952
  C      -4.221666     10.707775     -1.660237
  H      -4.438866      7.524950     -0.448042
  H      -6.860917      8.062511     -0.657813
  H      -3.472217     11.473075     -1.921941
  C      -8.008348     10.396808     -1.307503
  C      -8.946155      9.559562     -1.950399
  C     -10.318828      9.825200     -1.876362
  C     -10.799994     10.940253     -1.162759
  C      -8.496584     11.507204     -0.580431
  C      -9.868966     11.773289     -0.510623
  H      -8.583667      8.695500     -2.529326
  H     -11.033745      9.159435     -2.386828
  H      -7.787296     12.161358     -0.048793
  H     -10.228936     12.637622      0.070848
  C     -12.271526     11.205617     -1.052233
  Cl    -12.998417     10.347595      0.387373
  H     -12.826290     10.841190     -1.937840
  H     -12.487182     12.281538     -0.909073
  C      -1.068366     13.586548      2.962797
  C       0.170278     14.379755      2.623212
  H      -1.026622     13.223182      4.010503
  H      -1.933050     14.292835      2.926504
  C      -0.216923     13.780378      0.198813
  C       0.574621     14.488579      1.274838
  H      -1.016832     14.473079     -0.156011
  H       0.421112     13.578287     -0.686185
  C       0.903165     15.063629      3.609930
  C       1.993205     15.873806      3.272105
  C       1.675831     15.293184      0.946870
  C       2.385804     16.024510      1.923189
  H       1.949064     15.408342     -0.114687
  H       0.605337     14.963268      4.666675
  H       2.557270     16.391375      4.063530
  C       3.446398     16.978615      1.516683
  C       4.247039     16.761275      0.372918
  C       5.127433     17.746382     -0.090113
  C       5.249414     18.985875      0.568325
  C       4.493201     19.181694      1.742903
  H       4.173154     15.803392     -0.165246
  H       5.720825     17.558850     -1.000476
  C       3.614043     18.199064      2.209215
  H       4.542625     20.148722      2.267334
  H       2.994075     18.413167      3.092429
  C      -5.908419     12.471434     -2.169086
  C      -5.242476     13.516358     -1.285080
  H      -7.006226     12.633499     -2.192977
  H      -5.561216     12.629575     -3.213611
  C      -4.868674     13.223926      0.042611
  C      -4.167342     14.150370      0.820496
  C      -4.923662     14.794577     -1.785244
  C      -4.234129     15.731219     -1.002851
  C      -3.821892     15.424153      0.314262
  H      -5.070185     12.222574      0.454986
  H      -3.823858     13.849802      1.820419
  H      -5.202879     15.055920     -2.819655
  H      -3.989771     16.717889     -1.426639
  C      -2.980163     16.365408      1.103172
  C      -1.885477     16.989228      0.460124
  C      -0.999273     17.843226      1.130588
  C      -3.222657     16.671830      2.470580
  C      -2.300841     17.493709      3.145400
  C      -1.185925     18.060040      2.513242
  H      -1.724900     16.791906     -0.612567
  H      -2.484736     17.731437      4.207151
  C      -4.534405     16.354933      3.178617
  C      -5.445733     17.566140      3.088490
  H      -4.339432     16.109730      4.242696
  H      -5.036300     15.480324      2.725943
  C      -5.708571     18.388057      4.195454
  C      -6.443099     19.571487      4.034904
  C      -6.940231     19.972255      2.778501
  C      -6.689778     19.140236      1.650072
  C      -5.956173     17.957853      1.835661
  H      -5.327225     18.109434      5.191507
  H      -6.641074     20.213896      4.907797
  H      -5.732980     17.335816      0.953341
  C      -7.641228     21.282883      2.674302
  C      -8.971205     21.386969      2.219286
  C      -9.605445     22.632174      2.120644
  C      -8.928673     23.815690      2.473429
  C      -7.598966     23.716026      2.930138
  C      -6.969032     22.472341      3.034072
  H      -9.520335     20.471847      1.947007
  H      -5.922889     22.412276      3.372301
  H      -7.046761     24.634176      3.188712
  H     -10.646409     22.688123      1.762322
  C      -9.593130     25.153328      2.345496
  Cl     -9.049283     26.058186      0.851932
  H      -9.346244     25.819003      3.194809
  H     -10.693069     25.060359      2.267961
  C      -7.069729     19.546883      0.235327
  C      -6.606242     20.950317     -0.103572
  H      -8.168688     19.484830      0.082786
  H      -6.624945     18.806328     -0.464495
  C      -5.304656     21.376786      0.233419
  C      -4.945462     22.725758      0.135278
  C      -5.876372     23.690719     -0.309965
  C      -7.499156     21.896717     -0.633632
  C      -7.144210     23.245665     -0.739364
  H      -4.583236     20.651073      0.643056
  H      -3.937741     23.047653      0.442761
  H      -8.525469     21.588998     -0.891068
  H      -7.895444     23.985775     -1.053597
  C      -5.623900     25.144330     -0.182377
  C      -5.129037     25.650986      1.036959
  C      -5.066227     27.028749      1.286463
  C      -5.987717     26.062228     -1.189384
  C      -5.887687     27.440496     -0.962741
  C      -5.453819     27.938856      0.277868
  H      -4.851987     24.942310      1.834306
  H      -6.346198     25.687130     -2.160625
  H      -6.173699     28.148266     -1.758336
  C      -4.664243     27.568899      2.640752
  C      -3.934817     28.888578      2.547187
  C      -4.309324     29.795727      1.532023
  C      -5.428588     29.418556      0.588400
  H      -6.399864     29.690288      1.071453
  H      -5.380395     30.019535     -0.342864
  H      -4.066806     26.822193      3.203162
  H      -5.595308     27.722990      3.241099
  C      -2.916364     29.248491      3.440394
  C      -3.648717     31.028402      1.448893
  C      -2.650927     31.412567      2.370622
  C      -2.268767     30.496741      3.388257
  H      -2.607330     28.525551      4.214832
  H      -3.944619     31.739631      0.660574
  C      -2.022625     32.752617      2.201852
  C      -1.406460     33.096600      0.977688
  C      -0.807669     34.349333      0.798674
  C      -2.047278     33.722800      3.228072
  C      -1.447405     34.974971      3.048341
  C      -0.812849     35.304209      1.834340
  H      -1.380595     32.352376      0.166175
  H      -0.313032     34.588543     -0.156830
  H      -2.565229     33.495954      4.172993
  H      -1.469249     35.714057      3.865694
  C      -0.117852     36.621381      1.664676
  Cl      1.635108     36.511729      2.167161
  H      -0.568505     37.412608      2.293651
  H      -0.114095     36.955837      0.609727
  C      -1.135400     30.760918      4.367979
  C       0.161974     18.512302      0.428214
  C      -0.184981     18.907907      3.259867
  C       0.354861     20.043558      2.419003
  H       0.663045     18.242805      3.554753
  H      -0.616949     19.289254      4.207623
  C       0.516022     19.854729      1.030322
  H      -0.042224     18.607654     -0.658026
  H       1.056089     17.849950      0.513339
  C       1.034752     20.906465      0.255420
  C       0.710710     21.278546      2.983979
  C       1.246972     22.327007      2.212282
  C       1.426314     22.136752      0.816223
  H       1.158456     20.753172     -0.830350
  H       0.562450     21.442704      4.064283
  C       1.597713     23.612906      2.881093
  C       2.615532     23.680130      3.855505
  C       0.910894     24.801005      2.557679
  C       1.229293     26.014645      3.182478
  C       2.241118     26.082417      4.161197
  C       2.929777     24.894005      4.482846
  H       3.737302     24.924528      5.233417
  H       3.181068     22.767863      4.102896
  H       0.107499     24.768561      1.804436
  H       0.679920     26.927700      2.906388
  C       2.580297     27.388198      4.876554
  C       0.808218     29.118769      4.529005
  C       0.902412     30.826995      2.838210
  C       0.208800     30.224097      3.905421
  H      -1.389861     30.293723      5.340973
  H      -1.031400     31.847418      4.551927
  C       2.079236     28.624937      4.166968
  C       2.805971     29.287940      3.137112
  C       2.167677     30.365846      2.473530
  H       0.458294     31.679204      2.302293
  H       2.696567     30.862325      1.645851
  H       0.273964     28.620014      5.356173
  H       3.678207     27.435281      5.031815
  H       2.127365     27.352583      5.892189
  C       4.239593     29.026479      2.819218
  C       4.847868     27.750785      2.753497
  C       6.232217     27.627199      2.552490
  C       7.050578     28.756590      2.369713
  C       6.442064     30.031470      2.357541
  C       5.070426     30.151230      2.603763
  H       4.238967     26.841639      2.854545
  H       6.692953     26.624110      2.542098
  H       4.633668     31.159545      2.674876
  C       6.122555     20.091605     -0.002399
  C       5.600829     21.475149      0.327236
  H       6.168290     19.968433     -1.106695
  H       7.167509     19.974395      0.353908
  C       6.323973     22.421309      1.099291
  C       5.727848     23.678396      1.354638
  C       4.416837     23.967202      0.949869
  C       4.303040     21.800675     -0.098240
  C       3.671040     23.005695      0.240719
  H       3.732807     21.040279     -0.657102
  H       6.295971     24.415955      1.945538
  H       3.958784     24.930543      1.223761
  C       2.180531     23.154003     -0.030271
  H       1.966604     22.964497     -1.102949
  H       1.858171     24.188773      0.193000
  C       7.658059     22.095887      1.677745
  C       7.803624     21.002802      2.563462
  C       9.049553     20.674485      3.106814
  C      10.199146     21.423772      2.783598
  C      10.055068     22.520659      1.913368
  C       8.803913     22.857349      1.372004
  H       6.918598     20.405058      2.832733
  H       9.137717     19.820927      3.798510
  H      10.942658     23.115640      1.640716
  H       8.712804     23.709413      0.679447
  C      11.532147     21.079188      3.422904
  C      11.579665     21.563594      4.864665
  H      12.352663     21.557531      2.848625
  H      11.692102     19.985930      3.371373
  C      11.654903     22.952035      5.088869
  C      11.612993     23.503036      6.372726
  C      11.494446     22.647679      7.492265
  C      11.406567     21.267103      7.282151
  C      11.450426     20.703874      5.985250
  C      11.351017     19.223957      5.851545
  H      11.331159     20.589141      8.148226
  H      11.741843     23.627291      4.220972
  C      12.380550     18.461826      5.254447
  C      12.274486     17.070616      5.146858
  C      11.140344     16.392788      5.637756
  C      10.115757     17.147277      6.240924
  C      10.221399     18.539880      6.350834
  H      13.285941     18.972203      4.890229
  H      13.087048     16.494653      4.674870
  H       9.217877     16.634371      6.622575
  H       9.408691     19.119446      6.816523
  C      11.009946     14.907452      5.481241
  Cl     10.296886     14.468991      3.859208
  H      10.337110     14.469929      6.243150
  H      11.991845     14.399012      5.531475
  C      11.520049     23.286901      8.867321
  C      12.562063     24.385728      8.920341
  H      11.692036     22.530462      9.659058
  H      10.516102     23.732318      9.074192
  C      12.678494     25.229054      7.791388
  C      11.735080     24.986615      6.634057
  H      12.061866     25.532485      5.726309
  H      10.728027     25.390803      6.899279
  C      13.440255     24.574461     10.000298
  C      14.434154     25.562021      9.954551
  C      14.587523     26.383337      8.815709
  C      13.682268     26.201668      7.745690
  H      13.792630     26.805968      6.831919
  H      15.100493     25.698262     10.820074
  H      13.353860     23.929034     10.889800
  C      15.686579     27.372306      8.696073
  C      16.910541     27.211494      9.379497
  C      17.944734     28.137581      9.203173
  C      15.551486     28.488770      7.841295
  C      16.586605     29.407080      7.627382
  C      17.811886     29.230769      8.325692
  H      18.895755     27.999252      9.743196
  H      17.067120     26.341337     10.034880
  H      14.592948     28.655324      7.330415
  C      18.949624     30.190532      8.162140
  Cl     18.664604     31.759109      9.069029
  H      19.113479     30.489432      7.109128
  H      19.891673     29.776197      8.566994
  C      16.414345     30.567838      6.655471
  C      15.065024     30.640198      5.981390
  H      17.209454     30.494220      5.879531
  H      16.622490     31.513108      7.201464
  C      14.780104     29.880627      4.827644
  C      13.512905     29.916005      4.229348
  C      12.479760     30.720571      4.761600
  C      12.765174     31.469056      5.926245
  C      14.030992     31.427950      6.523132
  H      15.574362     29.258851      4.382235
  C      11.155825     30.831860      4.097057
  C      10.514681     29.723488      3.498062
  C      10.506000     32.085611      4.044274
  C       9.269130     29.851448      2.858146
  C       8.641994     31.118171      2.808320
  C       9.266953     32.222003      3.411553
  H      10.989988     28.729663      3.556687
  H      10.996537     32.968145      4.482524
  H       8.775665     33.208068      3.373697
  C       7.311830     31.241079      2.106685
  H       6.792346     32.175024      2.401241
  H       7.493040     31.325323      1.006782
  C       8.556269     28.679275      2.204423
  H       8.795828     28.691700      1.112377
  H       8.945983     27.713267      2.585876
  H      14.223397     32.017259      7.434541
  H      11.971549     32.083958      6.378384
  H      13.329273     29.343399      3.306378
324
Coordinates from ORCA-job input E -9763.433742458210
  C      -3.176989      9.076629      1.970043
  C      -4.488260      9.341995      2.415767
  C      -5.331259      8.305119      2.829211
  C      -4.887819      6.969268      2.813951
  C      -3.567534      6.702912      2.400001
  C      -2.725644      7.739747      1.984046
  H      -1.694304      7.516835      1.672420
  H      -3.194696      5.667044      2.414127
  H      -4.857263     10.378029      2.408413
  H      -6.356554      8.532565      3.159106
  C      -5.783837      5.860020      3.275995
  Cl     -5.553674      5.514879      5.051632
  H      -5.570647      4.910548      2.750722
  H      -6.852005      6.114388      3.146176
  C      -1.112309     11.382245     -0.240630
  C      -0.836814     12.445263      0.635599
  C      -1.855671     10.255038      0.148395
  C      -1.278256     12.366287      1.971607
  C      -2.315225     10.189001      1.490854
  H      -0.766234     11.454704     -1.284729
  C      -2.006076     11.237305      2.376253
  H      -2.351977     11.162613      3.419400
  C      -2.306158      9.248583     -0.902661
  C      -3.784314      9.459428     -1.186015
  H      -2.135133      8.206026     -0.575928
  H      -1.711134      9.405555     -1.825320
  C      -4.762245      8.499390     -0.870398
  C      -6.119573      8.825511     -0.957983
  C      -6.549575     10.123075     -1.318178
  C      -5.570440     11.079167     -1.694285
  C      -4.215874     10.710986     -1.646399
  H      -4.460792      7.507432     -0.501811
  H      -6.875642      8.080350     -0.668301
  H      -3.460120     11.474286     -1.889272
  C      -8.000518     10.439725     -1.249379
  C      -8.946461      9.643247     -1.930026
  C     -10.315873      9.913971     -1.836746
  C     -10.786680     10.987169     -1.056081
  C      -8.479447     11.500462     -0.446932
  C      -9.848794     11.768183     -0.353209
  H      -8.592709      8.809321     -2.554442
  H     -11.036536      9.283543     -2.380321
  H      -7.767379     12.099771      0.139952
  H     -10.200975     12.593969      0.284092
  C     -12.254128     11.262262     -0.934141
  Cl    -12.991307     10.327819      0.449771
  H     -12.810122     10.955713     -1.839366
  H     -12.458940     12.328634     -0.725988
  C      -1.017278     13.513020      2.919497
  C       0.225853     14.299672      2.585111
  H      -0.981646     13.150696      3.966830
  H      -1.879759     14.221489      2.874257
  C      -0.142286     13.697587      0.159587
  C       0.646618     14.396925      1.241955
  H      -0.927545     14.401506     -0.206368
  H       0.503267     13.482260     -0.715538
  C       0.953217     14.982376      3.575607
  C       2.044044     15.792565      3.244433
  C       1.745426     15.205816      0.920144
  C       2.449592     15.937187      1.899656
  H       2.039580     15.301160     -0.136481
  H       0.649006     14.883307      4.629398
  H       2.601481     16.310116      4.038793
  C       3.485543     16.917802      1.497025
  C       4.293401     16.720740      0.355251
  C       5.151562     17.726132     -0.103909
  C       5.241683     18.967401      0.555334
  C       4.474592     19.145924      1.723983
  H       4.239300     15.765408     -0.187314
  H       5.753644     17.552116     -1.009741
  C       3.614963     18.144826      2.184088
  H       4.498192     20.113138      2.247321
  H       2.983353     18.347210      3.060456
  C      -5.886417     12.493733     -2.139379
  C      -5.234892     13.549324     -1.257566
  H      -6.981514     12.656978     -2.188049
  H      -5.518114     12.637279     -3.177936
  C      -4.899770     13.282410      0.085257
  C      -4.211401     14.218882      0.862013
  C      -4.902229     14.816876     -1.772281
  C      -4.227566     15.763641     -0.991395
  C      -3.850769     15.479609      0.340476
  H      -5.125261     12.296077      0.513726
  H      -3.908992     13.943683      1.882585
  H      -5.157632     15.060844     -2.815734
  H      -3.978738     16.744839     -1.422789
  C      -3.011435     16.424372      1.122139
  C      -1.907967     17.027686      0.480374
  C      -1.017220     17.876469      1.147583
  C      -3.240011     16.719189      2.492601
  C      -2.318060     17.542396      3.163904
  C      -1.208212     18.110748      2.526119
  H      -1.721937     16.788012     -0.578460
  H      -2.502896     17.786549      4.222734
  C      -4.530406     16.361817      3.216808
  C      -5.464967     17.553847      3.135690
  H      -4.317458     16.121344      4.277423
  H      -5.015974     15.477517      2.765595
  C      -5.743266     18.361524      4.248409
  C      -6.485974     19.539350      4.094217
  C      -6.973399     19.949293      2.837692
  C      -6.700436     19.134507      1.701388
  C      -5.963268     17.955292      1.882539
  H      -5.356463     18.083126      5.241054
  H      -6.699567     20.168528      4.971559
  H      -5.715943     17.351255      0.995912
  C      -7.670574     21.261225      2.742808
  C      -9.000622     21.374247      2.294463
  C      -9.624647     22.623622      2.197824
  C      -8.938389     23.800666      2.550307
  C      -7.612741     23.690323      3.013131
  C      -6.993379     22.442692      3.115535
  H      -9.556489     20.464429      2.023114
  H      -5.951163     22.373117      3.459828
  H      -7.054252     24.602528      3.272949
  H     -10.664688     22.688228      1.841865
  C      -9.579908     25.145552      2.397192
  Cl     -8.961440     26.034853      0.924450
  H      -9.356204     25.809216      3.253207
  H     -10.675829     25.067692      2.274698
  C      -7.075565     19.544921      0.284976
  C      -6.610635     20.947383     -0.055576
  H      -8.173037     19.483925      0.130836
  H      -6.630525     18.805645     -0.414244
  C      -5.307502     21.371957      0.272980
  C      -4.946714     22.718648      0.165053
  C      -5.875346     23.680285     -0.288783
  C      -7.497187     21.887930     -0.605329
  C      -7.139725     23.233752     -0.722892
  H      -4.584674     20.646297      0.677102
  H      -3.938059     23.040084      0.465400
  H      -8.517581     21.577036     -0.876580
  H      -7.884441     23.970091     -1.056825
  C      -5.622121     25.133504     -0.173244
  C      -5.124663     25.648883      1.040314
  C      -5.059952     27.027480      1.278662
  C      -6.003386     26.043506     -1.179773
  C      -5.906167     27.422422     -0.962751
  C      -5.455689     27.929493      0.267523
  H      -4.855611     24.947528      1.845321
  H      -6.390295     25.661958     -2.136137
  H      -6.195902     28.123286     -1.761426
  C      -4.634587     27.576145      2.622027
  C      -3.910881     28.896209      2.507109
  C      -4.302161     29.796159      1.493250
  C      -5.431311     29.410472      0.566129
  H      -6.397059     29.683101      1.056969
  H      -5.393257     30.002820     -0.369877
  H      -4.023079     26.835790      3.175545
  H      -5.553329     27.731428      3.238542
  C      -2.883734     29.264807      3.385695
  C      -3.654343     31.033372      1.400379
  C      -2.643408     31.423780      2.303442
  C      -2.244601     30.515846      3.319686
  H      -2.563602     28.548917      4.160354
  H      -3.957042     31.735726      0.609228
  C      -2.036142     32.771995      2.133415
  C      -1.441550     33.129436      0.903430
  C      -0.859847     34.388872      0.723437
  C      -2.054214     33.734168      3.166445
  C      -1.470530     34.992777      2.986085
  C      -0.861888     35.337696      1.763825
  H      -1.419258     32.391086      0.088050
  H      -0.384718     34.639931     -0.237508
  H      -2.548090     33.493348      4.119457
  H      -1.491747     35.727316      3.805929
  C      -0.186338     36.663410      1.591201
  Cl      1.573922     36.569505      2.066469
  H      -0.635152     37.444761      2.231870
  H      -0.200916     37.002877      0.539050
  C      -1.111508     30.797254      4.293083
  C       0.136379     18.544039      0.436284
  C      -0.207678     18.962836      3.267044
  C       0.335267     20.087994      2.415592
  H       0.636712     18.299675      3.570480
  H      -0.642242     19.355307      4.207936
  C       0.488317     19.888897      1.028099
  H      -0.074269     18.633760     -0.648329
  H       1.031065     17.886866      0.520908
  C       1.014764     20.927709      0.244364
  C       0.696825     21.325332      2.969090
  C       1.235879     22.363569      2.187163
  C       1.412857     22.158973      0.793546
  H       1.147135     20.760083     -0.836997
  H       0.550434     21.499756      4.046842
  C       1.598789     23.651118      2.842788
  C       2.614589     23.716423      3.818233
  C       0.918463     24.840571      2.515053
  C       1.242654     26.053892      3.134549
  C       2.257730     26.120963      4.108343
  C       2.937751     24.930835      4.437291
  H       3.744890     24.959881      5.186505
  H       3.169790     22.801854      4.075470
  H       0.107150     24.807592      1.772196
  H       0.698579     26.967443      2.854607
  C       2.598055     27.424792      4.822378
  C       0.824040     29.150550      4.460847
  C       0.929789     30.857926      2.770815
  C       0.229488     30.255213      3.832843
  H      -1.362286     30.343858      5.272421
  H      -1.008036     31.885871      4.458473
  C       2.097476     28.658769      4.108853
  C       2.830787     29.323008      3.087582
  C       2.198108     30.398809      2.417892
  H       0.491067     31.710992      2.234394
  H       2.733025     30.895166      1.595377
  H       0.284201     28.651484      5.282519
  H       3.694708     27.473213      4.979303
  H       2.142747     27.390420      5.835872
  C       4.263573     29.058397      2.781068
  C       4.866405     27.781365      2.717704
  C       6.251489     27.652641      2.531813
  C       7.075207     28.777837      2.363317
  C       6.472593     30.054051      2.349677
  C       5.100308     30.179730      2.581898
  H       4.253986     26.875132      2.815345
  H       6.704619     26.649134      2.515265
  H       4.666818     31.188745      2.646919
  C       6.115838     20.082389      0.005617
  C       5.584147     21.461427      0.340844
  H       6.174274     19.969470     -1.097884
  H       7.155495     19.966238      0.373648
  C       6.301311     22.410710      1.112112
  C       5.707142     23.668017      1.357484
  C       4.402916     23.958863      0.939459
  C       4.289810     21.785954     -0.094488
  C       3.660740     22.996338      0.231069
  H       3.724726     21.027029     -0.657824
  H       6.271689     24.408134      1.943818
  H       3.946477     24.925799      1.199880
  C       2.178339     23.157032     -0.062666
  H       1.975546     22.951178     -1.133372
  H       1.863871     24.196853      0.141606
  C       7.635728     22.095871      1.688530
  C       7.793247     21.000152      2.567012
  C       9.043329     20.680383      3.102095
  C      10.182954     21.442362      2.778353
  C      10.026627     22.542243      1.916049
  C       8.771680     22.869822      1.382447
  H       6.916368     20.391667      2.833802
  H       9.141989     19.826494      3.790032
  H      10.905966     23.148436      1.646352
  H       8.670769     23.721185      0.692255
  C      11.521415     21.099449      3.400664
  C      11.575714     21.570354      4.845197
  H      12.333588     21.587695      2.824953
  H      11.685096     20.008108      3.338584
  C      11.657194     22.954906      5.081430
  C      11.621149     23.493292      6.369615
  C      11.499471     22.629029      7.480620
  C      11.403958     21.251440      7.258423
  C      11.443886     20.700879      5.956778
  C      11.332720     19.223995      5.808912
  H      11.326953     20.566536      8.117336
  H      11.743193     23.636874      4.220324
  C      12.355495     18.460486      5.204034
  C      12.238827     17.072058      5.083369
  C      11.100382     16.398596      5.568504
  C      10.082029     17.154774      6.178761
  C      10.198716     18.544404      6.302350
  H      13.262379     18.967347      4.842044
  H      13.046261     16.494824      4.606998
  H       9.181596     16.645587      6.555813
  H       9.392221     19.125026      6.774705
  C      10.959312     14.916255      5.399179
  Cl     10.240546     14.500912      3.774886
  H      10.284007     14.476827      6.156278
  H      11.936593     14.400515      5.441315
  C      11.521920     23.254800      8.860909
  C      12.566389     24.349640      8.924527
  H      11.691332     22.491383      9.645017
  H      10.519484     23.700649      9.068290
  C      12.688902     25.201429      7.803673
  C      11.749041     24.972813      6.642528
  H      12.081927     25.522816      5.741290
  H      10.744073     25.378996      6.907841
  C      13.436366     24.531949     10.011118
  C      14.425946     25.523113      9.980174
  C      14.587358     26.351210      8.847773
  C      13.691068     26.174468      7.770673
  H      13.805686     26.784486      6.862567
  H      15.087055     25.652041     10.849242
  H      13.340798     23.885182     10.897250
  C      15.673018     27.354738      8.751136
  C      16.885405     27.208562      9.455341
  C      17.912285     28.144212      9.296043
  C      15.543172     28.467090      7.890999
  C      16.573054     29.393750      7.692266
  C      17.785029     29.234539      8.415336
  H      18.852331     28.018618      9.855707
  H      17.041386     26.339347     10.109938
  H      14.599097     28.614695      7.350924
  C      18.917083     30.202452      8.268511
  Cl     18.598680     31.772895      9.158580
  H      19.099241     30.496734      7.218236
  H      19.853143     29.800391      8.696199
  C      16.401314     30.557188      6.725317
  C      15.054711     30.623048      6.048270
  H      17.198148     30.488720      5.952166
  H      16.600248     31.501282      7.274693
  C      14.776693     29.861778      4.895071
  C      13.515512     29.900317      4.287163
  C      12.482440     30.710254      4.808595
  C      12.759849     31.458048      5.974544
  C      14.019485     31.413357      6.581453
  H      15.570756     29.235374      4.458862
  C      11.166951     30.827886      4.132186
  C      10.526567     29.723818      3.526232
  C      10.524231     32.083638      4.075947
  C       9.289588     29.859495      2.874293
  C       8.669346     31.127772      2.821984
  C       9.292759     32.226854      3.432700
  H      10.994654     28.728826      3.588930
  H      11.011718     32.961484      4.523968
  H       8.806723     33.214103      3.392957
  C       7.347619     31.259160      2.108737
  H       6.829284     32.193071      2.401732
  H       7.538985     31.343473      1.011760
  C       8.580591     28.693630      2.209029
  H       8.828868     28.711084      1.120205
  H       8.962746     27.725992      2.590888
  H      14.206457     32.003055      7.492280
  H      11.965596     32.075384      6.419306
  H      13.337056     29.325232      3.366143
324
Coordinates from ORCA-job input E -9763.435141217502
  C      -3.164159      9.053684      1.972597
  C      -4.469739      9.308724      2.441425
  C      -5.305840      8.262703      2.847037
  C      -4.860833      6.927659      2.800659
  C      -3.545831      6.671251      2.362768
  C      -2.711022      7.717129      1.954201
  H      -1.683127      7.501706      1.624623
  H      -3.171093      5.635433      2.352176
  H      -4.840481     10.345082      2.456089
  H      -6.327300      8.482561      3.195393
  C      -5.748896      5.808093      3.253780
  Cl     -5.497890      5.430514      5.020297
  H      -5.541242      4.868817      2.707255
  H      -6.819599      6.061958      3.140452
  C      -1.135723     11.403943     -0.226267
  C      -0.861074     12.459412      0.659271
  C      -1.865394     10.265471      0.155151
  C      -1.288129     12.361458      1.999230
  C      -2.313190     10.178934      1.500910
  H      -0.800280     11.491545     -1.273357
  C      -2.002097     11.219733      2.396647
  H      -2.338670     11.130267      3.442312
  C      -2.313552      9.268603     -0.905813
  C      -3.793986      9.468653     -1.186342
  H      -2.131531      8.222402     -0.595024
  H      -1.720988      9.441174     -1.828007
  C      -4.763940      8.499562     -0.872303
  C      -6.124245      8.815415     -0.955962
  C      -6.565618     10.108554     -1.318559
  C      -5.595867     11.072255     -1.699308
  C      -4.237157     10.717497     -1.645558
  H      -4.453954      7.508960     -0.505568
  H      -6.874327      8.064271     -0.664171
  H      -3.487884     11.485243     -1.897707
  C      -8.019286     10.414044     -1.246180
  C      -8.961853      9.599301     -1.909940
  C     -10.333446      9.860657     -1.814672
  C     -10.809078     10.946854     -1.054988
  C      -8.501758     11.494927     -0.473189
  C      -9.873166     11.755377     -0.380286
  H      -8.604082      8.757929     -2.522981
  H     -11.051609      9.212400     -2.341478
  H      -7.789346     12.127310      0.078756
  H     -10.228394     12.594671      0.238389
  C     -12.279166     11.207051     -0.924344
  Cl    -12.991083     10.313342      0.498344
  H     -12.840367     10.864752     -1.814094
  H     -12.494555     12.278431     -0.752575
  C      -1.013637     13.495373      2.961202
  C       0.210272     14.306803      2.613467
  H      -0.950095     13.115716      4.001716
  H      -1.883466     14.195832      2.954531
  C      -0.190563     13.725402      0.187256
  C       0.601500     14.431107      1.263065
  H      -0.991608     14.418096     -0.164662
  H       0.445838     13.527965     -0.699514
  C       0.940426     14.997313      3.597276
  C       2.012477     15.828352      3.255234
  C       1.684578     15.257287      0.931001
  C       2.394066     15.991104      1.904823
  H       1.951178     15.376262     -0.131153
  H       0.655195     14.884563      4.655605
  H       2.574262     16.348508      4.045627
  C       3.434485     16.964764      1.495388
  C       4.227867     16.764823      0.343476
  C       5.095367     17.760710     -0.118560
  C       5.210264     18.997166      0.546572
  C       4.456939     19.178992      1.724232
  H       4.158260     15.811893     -0.202666
  H       5.685357     17.583405     -1.032398
  C       3.590816     18.184958      2.190074
  H       4.500120     20.142731      2.253682
  H       2.973639     18.389592      3.077126
  C      -5.924499     12.495237     -2.106256
  C      -5.248929     13.534633     -1.223744
  H      -7.021777     12.657723     -2.120888
  H      -5.587902     12.660273     -3.152794
  C      -4.864868     13.238807      0.099703
  C      -4.161784     14.164919      0.875933
  C      -4.940968     14.816521     -1.719888
  C      -4.249328     15.752134     -0.939194
  C      -3.825760     15.441822      0.373236
  H      -5.063992     12.238071      0.511261
  H      -3.821389     13.865219      1.876760
  H      -5.233431     15.082892     -2.748633
  H      -4.021310     16.744973     -1.356900
  C      -2.983159     16.386670      1.154972
  C      -1.899379     17.016159      0.502240
  C      -1.015447     17.879667      1.161275
  C      -3.210715     16.686934      2.526054
  C      -2.293738     17.524187      3.188892
  C      -1.194204     18.106247      2.543105
  H      -1.737101     16.805511     -0.567017
  H      -2.472012     17.764756      4.250321
  C      -4.506335     16.341200      3.248806
  C      -5.446350     17.529608      3.161625
  H      -4.297809     16.105411      4.311897
  H      -4.991308     15.452761      2.804806
  C      -5.749809     18.326387      4.276442
  C      -6.508815     19.494586      4.121432
  C      -6.985794     19.906655      2.861348
  C      -6.693949     19.099572      1.724778
  C      -5.942205     17.929162      1.906456
  H      -5.378991     18.041412      5.273955
  H      -6.736149     20.118685      4.999662
  H      -5.689772     17.326987      1.019437
  C      -7.689640     21.215810      2.760681
  C      -9.017864     21.327937      2.302208
  C      -9.638174     22.579773      2.195228
  C      -8.953198     23.757217      2.552530
  C      -7.632025     23.645850      3.027164
  C      -7.014070     22.397981      3.134541
  H      -9.571586     20.417822      2.025109
  H      -5.973364     22.328435      3.485047
  H      -7.074482     24.557787      3.291244
  H     -10.675744     22.645168      1.830491
  C      -9.592033     25.104756      2.404816
  Cl     -8.923216     26.034998      0.978977
  H      -9.402213     25.748830      3.284387
  H     -10.683253     25.027619      2.241766
  C      -7.062408     19.516286      0.309875
  C      -6.599850     20.922272     -0.018753
  H      -8.159431     19.454611      0.148847
  H      -6.613031     18.780639     -0.391371
  C      -5.299332     21.351795      0.316155
  C      -4.942461     22.700697      0.212032
  C      -5.874823     23.661585     -0.237969
  C      -7.491257     21.863202     -0.560320
  C      -7.139855     23.211896     -0.669888
  H      -4.573296     20.626752      0.717832
  H      -3.934138     23.024833      0.514975
  H      -8.510099     21.546680     -0.834576
  H      -7.889965     23.947808     -0.994453
  C      -5.620248     25.116651     -0.136664
  C      -5.103611     25.645632      1.063360
  C      -5.030379     27.027389      1.284430
  C      -6.007489     26.017090     -1.150335
  C      -5.902605     27.398337     -0.951179
  C      -5.438617     27.919491      0.268642
  H      -4.809820     24.952448      1.867644
  H      -6.393624     25.625256     -2.103480
  H      -6.203680     28.090825     -1.753758
  C      -4.593715     27.589682      2.618386
  C      -3.879066     28.913340      2.489470
  C      -4.277309     29.803759      1.468980
  C      -5.407543     29.404753      0.548095
  H      -6.373435     29.687738      1.034258
  H      -5.370569     29.984876     -0.396319
  H      -3.973193     26.856697      3.173089
  H      -5.507115     27.742982      3.244578
  C      -2.854683     29.295911      3.365311
  C      -3.634885     31.044089      1.365677
  C      -2.624691     31.447079      2.265058
  C      -2.221544     30.549531      3.289570
  H      -2.531152     28.588218      4.146951
  H      -3.945060     31.742369      0.571972
  C      -2.013973     32.791830      2.076409
  C      -1.413741     33.129534      0.843197
  C      -0.832819     34.387148      0.644550
  C      -2.039328     33.772435      3.092380
  C      -1.456981     35.029305      2.893157
  C      -0.840987     35.353800      1.668692
  H      -1.388534     32.378145      0.039170
  H      -0.352026     34.621680     -0.318405
  H      -2.543991     33.549950      4.044784
  H      -1.482405     35.777327      3.701361
  C      -0.170809     36.680103      1.475101
  Cl      1.588826     36.607177      1.954539
  H      -0.627527     37.470319      2.100110
  H      -0.187336     37.001996      0.416859
  C      -1.086882     30.838854      4.258747
  C       0.129145     18.556003      0.442253
  C      -0.197414     18.971758      3.276089
  C       0.334863     20.100759      2.421288
  H       0.654492     18.316713      3.580439
  H      -0.630667     19.362329      4.219053
  C       0.479692     19.902621      1.032323
  H      -0.088946     18.643984     -0.641530
  H       1.029325     17.902689      0.517737
  C       0.993909     20.946054      0.245532
  C       0.698011     21.339862      2.972525
  C       1.227185     22.382411      2.187451
  C       1.391647     22.179713      0.791405
  H       1.116144     20.780809     -0.838005
  H       0.561153     21.512320      4.052430
  C       1.589127     23.671637      2.841648
  C       2.589817     23.734819      3.833792
  C       0.925994     24.866551      2.495696
  C       1.254316     26.081855      3.110974
  C       2.253847     26.146005      4.102167
  C       2.915924     24.950441      4.449621
  H       3.710195     24.975582      5.213472
  H       3.133609     22.816912      4.104846
  H       0.125525     24.836559      1.739488
  H       0.720585     26.998795      2.819472
  C       2.600760     27.452271      4.810474
  C       0.844008     29.189812      4.437449
  C       0.964218     30.894312      2.746109
  C       0.256265     30.296450      3.805940
  H      -1.337092     30.392604      5.242141
  H      -0.986096     31.929022      4.418788
  C       2.115364     28.688724      4.090512
  C       2.858882     29.349868      3.072726
  C       2.233314     30.429610      2.401085
  H       0.530773     31.747584      2.204096
  H       2.774364     30.923964      1.580661
  H       0.299007     28.695386      5.259312
  H       3.696838     27.493085      4.978275
  H       2.138857     27.426909      5.821825
  C       4.293767     29.081541      2.774216
  C       4.895526     27.802634      2.720191
  C       6.281406     27.669231      2.540023
  C       7.109664     28.792821      2.372392
  C       6.509358     30.070922      2.348543
  C       5.135100     30.199722      2.571294
  H       4.280631     26.897104      2.814212
  H       6.730402     26.662133      2.533161
  H       4.703664     31.210750      2.627998
  C       6.084200     20.105740     -0.016342
  C       5.562232     21.489273      0.313946
  H       6.130760     19.985052     -1.120155
  H       7.127899     19.986653      0.341122
  C       6.284884     22.441534      1.078510
  C       5.691286     23.701343      1.320128
  C       4.383246     23.988206      0.908439
  C       4.265440     21.812072     -0.116102
  C       3.636523     23.022697      0.208147
  H       3.696471     21.048858     -0.671099
  H       6.257259     24.447710      1.899760
  H       3.927066     24.956128      1.166240
  C       2.150563     23.177448     -0.072062
  H       1.938161     22.968018     -1.140773
  H       1.835170     24.218007      0.129903
  C       7.622643     22.125219      1.648665
  C       7.785934     21.022972      2.519074
  C       9.037941     20.703516      3.051427
  C      10.175671     21.472255      2.734249
  C      10.013460     22.579052      1.880985
  C       8.756653     22.905849      1.349608
  H       6.910986     20.409763      2.783721
  H       9.139788     19.842983      3.731467
  H      10.890968     23.190276      1.614283
  H       8.652484     23.763894      0.667303
  C      11.516735     21.128910      3.353158
  C      11.575503     21.582149      4.803547
  H      12.326895     21.625633      2.780710
  H      11.686026     20.038824      3.277157
  C      11.664237     22.963699      5.058462
  C      11.631532     23.486391      6.353941
  C      11.505970     22.607812      7.453960
  C      11.405021     21.233321      7.213360
  C      11.441155     20.698995      5.904713
  C      11.322489     19.224242      5.737825
  H      11.324642     20.537464      8.063858
  H      11.753671     23.656743      4.205753
  C      12.342116     18.462204      5.125054
  C      12.216521     17.076051      4.984168
  C      11.072108     16.403120      5.456635
  C      10.057353     17.157447      6.075647
  C      10.182646     18.544894      6.218917
  H      13.254119     18.968049      4.772975
  H      13.021708     16.500423      4.500802
  H       9.152069     16.648942      6.443554
  H       9.377964     19.124351      6.697023
  C      10.921113     14.924134      5.264779
  Cl     10.202421     14.535891      3.634021
  H      10.243180     14.477925      6.016364
  H      11.895487     14.401394      5.302524
  C      11.527211     23.214069      8.842928
  C      12.565781     24.313195      8.927732
  H      11.696804     22.439503      9.616812
  H      10.521877     23.651799      9.057497
  C      12.694007     25.179014      7.817757
  C      11.762694     24.962456      6.646790
  H      12.099898     25.524519      5.753739
  H      10.755921     25.367880      6.909372
  C      13.425642     24.486748     10.024205
  C      14.410816     25.483381     10.014747
  C      14.577393     26.327479      8.894707
  C      13.691723     26.158034      7.806783
  H      13.810567     26.779987      6.906853
  H      15.061731     25.606173     10.892995
  H      13.327402     23.826433     10.900690
  C      15.662586     27.335638      8.818287
  C      16.863589     27.195593      9.544693
  C      17.887508     28.138363      9.403773
  C      15.540185     28.450483      7.959578
  C      16.567725     29.383707      7.779215
  C      17.769190     29.228584      8.521442
  H      18.819596     28.016905      9.978529
  H      17.012637     26.327674     10.203418
  H      14.601297     28.599978      7.410110
  C      18.898879     30.202842      8.394139
  Cl     18.556551     31.775937      9.270593
  H      19.101962     30.491937      7.345611
  H      19.828861     29.806067      8.840965
  C      16.409733     30.541646      6.803391
  C      15.071364     30.615412      6.110358
  H      17.216437     30.466312      6.040041
  H      16.610697     31.487939      7.349282
  C      14.795284     29.846175      4.961339
  C      13.540181     29.892876      4.340339
  C      12.510235     30.719767      4.842629
  C      12.785485     31.475377      6.004732
  C      14.038771     31.422356      6.624919
  H      15.586888     29.207139      4.537708
  C      11.200317     30.841672      4.154728
  C      10.559026     29.737919      3.548006
  C      10.562753     32.100235      4.086814
  C       9.325820     29.875240      2.888383
  C       8.709190     31.146267      2.827511
  C       9.335071     32.245749      3.435598
  H      11.023212     28.740641      3.616804
  H      11.052385     32.979422      4.531142
  H       8.852987     33.235299      3.389341
  C       7.389052     31.274514      2.109236
  H       6.870377     32.211064      2.395362
  H       7.584479     31.356941      1.012148
  C       8.616043     28.707011      2.226582
  H       8.870944     28.716913      1.138499
  H       8.995804     27.740008      2.614044
  H      14.222869     32.019263      7.532312
  H      11.993908     32.106256      6.436359
  H      13.365563     29.311840      3.421654
324
Coordinates from ORCA-job input E -9763.435439895104
  C      -3.163674      9.050643      2.028960
  C      -4.476497      9.295716      2.483311
  C      -5.304866      8.244319      2.891039
  C      -4.844665      6.913906      2.861696
  C      -3.522562      6.668095      2.439324
  C      -2.695519      7.719179      2.027972
  H      -1.662464      7.511822      1.709505
  H      -3.136421      5.636403      2.441901
  H      -4.858871     10.327916      2.483654
  H      -6.331900      8.456057      3.227886
  C      -5.724926      5.788718      3.316211
  Cl     -5.490744      5.433025      5.089475
  H      -5.499793      4.846294      2.782138
  H      -6.797123      6.028561      3.187337
  C      -1.147096     11.398804     -0.182882
  C      -0.887118     12.466572      0.692482
  C      -1.867933     10.257491      0.206818
  C      -1.321291     12.379517      2.031052
  C      -2.321885     10.180529      1.551168
  H      -0.805139     11.477149     -1.228587
  C      -2.027080     11.235106      2.436583
  H      -2.370037     11.154592      3.480931
  C      -2.307540      9.250007     -0.847796
  C      -3.786189      9.448110     -1.139190
  H      -2.126795      8.206562     -0.527030
  H      -1.708887      9.414330     -1.767599
  C      -4.758848      8.482273     -0.823454
  C      -6.118320      8.798609     -0.917990
  C      -6.556505     10.089572     -1.292618
  C      -5.583560     11.050206     -1.673902
  C      -4.225554     10.694280     -1.609485
  H      -4.452155      7.494029     -0.447716
  H      -6.870800      8.050722     -0.624077
  H      -3.474027     11.459462     -1.862362
  C      -8.010608     10.395588     -1.229804
  C      -8.949333      9.574651     -1.891594
  C     -10.321980      9.833326     -1.801884
  C     -10.802546     10.922304     -1.049206
  C      -8.498142     11.478411     -0.462628
  C      -9.870599     11.735390     -0.374407
  H      -8.587981      8.728647     -2.496078
  H     -11.036750      9.181521     -2.328936
  H      -7.789417     12.111324      0.093570
  H     -10.229552     12.577500      0.238282
  C     -12.273920     11.178376     -0.922826
  Cl    -12.983495     10.298444      0.509182
  H     -12.832394     10.823874     -1.809533
  H     -12.493559     12.250912     -0.763845
  C      -1.060367     13.525233      2.982967
  C       0.153714     14.349274      2.629038
  H      -0.992969     13.155621      4.026963
  H      -1.938446     14.215712      2.970098
  C      -0.226525     13.732856      0.207670
  C       0.548085     14.464247      1.278768
  H      -1.032535     14.410308     -0.163188
  H       0.419936     13.529117     -0.670443
  C       0.871982     15.060385      3.607453
  C       1.938025     15.897265      3.260508
  C       1.623716     15.298288      0.941626
  C       2.324566     16.047589      1.909879
  H       1.892631     15.408064     -0.120916
  H       0.585232     14.955266      4.666174
  H       2.491364     16.431153      4.047811
  C       3.372176     17.010926      1.494469
  C       4.164927     16.794972      0.344658
  C       5.044479     17.777799     -0.122555
  C       5.175644     19.015611      0.537468
  C       4.425669     19.211464      1.714930
  H       4.085311     15.839634     -0.195851
  H       5.632696     17.588228     -1.035058
  C       3.545917     18.231233      2.184626
  H       4.483094     20.176236      2.241120
  H       2.936329     18.446057      3.074385
  C      -5.908366     12.470855     -2.093004
  C      -5.233774     13.516077     -1.216373
  H      -7.005224     12.634758     -2.112451
  H      -5.568633     12.627191     -3.139976
  C      -4.851444     13.228177      0.109329
  C      -4.148981     14.158545      0.881075
  C      -4.923680     14.794838     -1.719985
  C      -4.233046     15.734895     -0.943399
  C      -3.812075     15.432249      0.371893
  H      -5.051049     12.230084      0.526542
  H      -3.813235     13.864790      1.885382
  H      -5.212834     15.054738     -2.751319
  H      -4.003584     16.725425     -1.366241
  C      -2.972103     16.382771      1.149005
  C      -1.890010     17.012639      0.493916
  C      -1.008387     17.881094      1.150011
  C      -3.199490     16.686688      2.519343
  C      -2.284919     17.528401      3.179085
  C      -1.187530     18.111900      2.531124
  H      -1.725307     16.797121     -0.574102
  H      -2.464777     17.772826      4.239422
  C      -4.492986     16.339096      3.244152
  C      -5.437354     17.524071      3.150055
  H      -4.283780     16.110616      4.308693
  H      -4.974240     15.445729      2.805197
  C      -5.747254     18.323869      4.261220
  C      -6.509019     19.489814      4.099858
  C      -6.983837     19.894634      2.836645
  C      -6.689704     19.082283      1.705075
  C      -5.931648     17.917093      1.892082
  H      -5.373679     18.046514      5.259875
  H      -6.740348     20.116854      4.974910
  H      -5.676239     17.312630      1.007833
  C      -7.696984     21.198168      2.724417
  C      -9.028892     21.298511      2.273980
  C      -9.652500     22.547708      2.149720
  C      -8.966814     23.733040      2.478736
  C      -7.641638     23.633034      2.946128
  C      -7.020601     22.388436      3.071160
  H      -9.582202     20.382502      2.016293
  H      -5.975856     22.327180      3.410957
  H      -7.083684     24.550585      3.190019
  H     -10.691543     22.604943      1.787670
  C      -9.615527     25.076492      2.328935
  Cl     -8.931080     26.024749      0.922502
  H      -9.446298     25.715976      3.216209
  H     -10.703223     24.990761      2.147666
  C      -7.054528     19.497414      0.289252
  C      -6.590667     20.904077     -0.035367
  H      -8.151238     19.437187      0.126074
  H      -6.603261     18.762186     -0.411264
  C      -5.290214     21.332546      0.301617
  C      -4.934447     22.683002      0.207533
  C      -5.867402     23.646978     -0.235218
  C      -7.486779     21.850366     -0.559973
  C      -7.136343     23.200159     -0.659702
  H      -4.565937     20.606153      0.704398
  H      -3.922600     23.003922      0.502655
  H      -8.510556     21.536724     -0.819025
  H      -7.886875     23.938074     -0.978506
  C      -5.611758     25.101846     -0.129048
  C      -5.081461     25.629278      1.066021
  C      -5.006861     27.011326      1.289150
  C      -6.010624     26.004936     -1.136258
  C      -5.903814     27.385807     -0.935797
  C      -5.426261     27.905507      0.279621
  H      -4.782708     24.935260      1.868006
  H      -6.408215     25.615141     -2.085503
  H      -6.212770     28.079390     -1.734451
  C      -4.555835     27.570454      2.619663
  C      -3.852661     28.900600      2.490356
  C      -4.262224     29.793113      1.475765
  C      -5.394841     29.390937      0.559257
  H      -6.359782     29.673258      1.047696
  H      -5.362073     29.970601     -0.385711
  H      -3.921864     26.839435      3.161748
  H      -5.461419     27.712554      3.259530
  C      -2.827226     29.287278      3.363543
  C      -3.627175     31.038104      1.373674
  C      -2.615679     31.443879      2.270164
  C      -2.203377     30.545927      3.290379
  H      -2.494282     28.578148      4.139949
  H      -3.947291     31.740833      0.587096
  C      -2.010129     32.791134      2.082615
  C      -1.404707     33.129535      0.852153
  C      -0.828088     34.389483      0.654694
  C      -2.043044     33.772490      3.097746
  C      -1.465215     35.031711      2.899658
  C      -0.846464     35.358033      1.676976
  H      -1.370944     32.376698      0.049790
  H      -0.345126     34.625230     -0.306889
  H      -2.547885     33.547785      4.049560
  H      -1.498380     35.780778      3.706620
  C      -0.182214     36.687603      1.484343
  Cl      1.575648     36.625674      1.970378
  H      -0.646313     37.476057      2.106176
  H      -0.196957     37.007853      0.425557
  C      -1.069684     30.841681      4.258653
  C       0.128464     18.565207      0.426007
  C      -0.191578     18.978983      3.262638
  C       0.338385     20.108246      2.407222
  H       0.660933     18.324988      3.568051
  H      -0.624978     19.369493      4.205665
  C       0.477197     19.911994      1.017293
  H      -0.096730     18.655185     -0.656216
  H       1.032154     17.915685      0.493160
  C       0.983113     20.958964      0.229468
  C       0.701268     21.347536      2.958286
  C       1.221968     22.393853      2.172346
  C       1.379941     22.193272      0.774963
  H       1.098971     20.796433     -0.855174
  H       0.567186     21.518610      4.038788
  C       1.588325     23.680804      2.826985
  C       2.583766     23.737972      3.825061
  C       0.937130     24.880855      2.475625
  C       1.272329     26.094617      3.090428
  C       2.268820     26.152910      4.085404
  C       2.917776     24.952010      4.439492
  H       3.709065     24.971604      5.206573
  H       3.117295     22.816013      4.102802
  H       0.140661     24.856528      1.714818
  H       0.747882     27.015246      2.793964
  C       2.619906     27.455780      4.797301
  C       0.861832     29.193067      4.429514
  C       0.985797     30.910961      2.751835
  C       0.275244     30.304681      3.805348
  H      -1.317360     30.395269      5.242600
  H      -0.974004     31.932429      4.417842
  C       2.135272     28.696334      4.083725
  C       2.881134     29.365547      3.073007
  C       2.256259     30.449196      2.406926
  H       0.552048     31.766489      2.213463
  H       2.799943     30.951162      1.592808
  H       0.313746     28.690327      5.244228
  H       3.716102     27.494546      4.964453
  H       2.159800     27.427351      5.809486
  C       4.316845     29.099637      2.777932
  C       4.918651     27.820798      2.720249
  C       6.305635     27.687688      2.546926
  C       7.135406     28.811654      2.389538
  C       6.535804     30.090259      2.370694
  C       5.160107     30.218511      2.586480
  H       4.303429     26.914600      2.807783
  H       6.752608     26.679790      2.536498
  H       4.729490     31.229640      2.648315
  C       6.057764     20.113377     -0.033512
  C       5.544206     21.502063      0.289211
  H       6.101045     19.985850     -1.136669
  H       7.100934     19.988653      0.323016
  C       6.272735     22.458750      1.043339
  C       5.681352     23.720524      1.280149
  C       4.371544     24.006556      0.873009
  C       4.245090     21.823507     -0.135363
  C       3.619734     23.037814      0.182381
  H       3.671319     21.056110     -0.679418
  H       6.249891     24.470889      1.851949
  H       3.917128     24.976462      1.127269
  C       2.132795     23.192902     -0.092533
  H       1.915726     22.982425     -1.160019
  H       1.818310     24.233544      0.109985
  C       7.611827     22.144898      1.611418
  C       7.781340     21.040560      2.478422
  C       9.036057     20.723348      3.006150
  C      10.170810     21.496477      2.688074
  C      10.001974     22.606873      1.840588
  C       8.742648     22.930808      1.313131
  H       6.908971     20.424855      2.745830
  H       9.142508     19.860239      3.682123
  H      10.876697     23.221674      1.572953
  H       8.634206     23.790645      0.633757
  C      11.515681     21.153294      3.299242
  C      11.579397     21.591851      4.753799
  H      12.321725     21.658268      2.728289
  H      11.688955     20.064607      3.211776
  C      11.680449     22.969785      5.022949
  C      11.652981     23.479706      6.323805
  C      11.519863     22.591159      7.414816
  C      11.407620     21.219808      7.160075
  C      11.437927     20.698604      5.846055
  C      11.304930     19.226828      5.663747
  H      11.320160     20.516183      8.003468
  H      11.775328     23.670557      4.177126
  C      12.318252     18.460787      5.045599
  C      12.178058     17.077671      4.888502
  C      11.024627     16.411942      5.349196
  C      10.016132     17.170178      5.973748
  C      10.156247     18.554458      6.133687
  H      13.236850     18.960604      4.702112
  H      12.978512     16.498966      4.400955
  H       9.104005     16.667528      6.332696
  H       9.356201     19.137207      6.615560
  C      10.857638     14.937114      5.138757
  Cl     10.137523     14.577418      3.502467
  H      10.173727     14.489225      5.883943
  H      11.826182     14.403306      5.171861
  C      11.544094     23.181828      8.810307
  C      12.583550     24.278858      8.908877
  H      11.712538     22.398096      9.575239
  H      10.539331     23.618053      9.030838
  C      12.717266     25.155840      7.808342
  C      11.792366     24.952087      6.630322
  H      12.137493     25.519620      5.743717
  H      10.786427     25.361737      6.889988
  C      13.437403     24.442747     10.011673
  C      14.420025     25.441978     10.018563
  C      14.590288     26.299809      8.909300
  C      13.712971     26.137023      7.813600
  H      13.833556     26.769216      6.921128
  H      15.063119     25.558378     10.903349
  H      13.336729     23.772259     10.880126
  C      15.670753     27.314576      8.851635
  C      16.863643     27.179307      9.592176
  C      17.882302     28.130468      9.469742
  C      15.551134     28.434789      7.999410
  C      16.573732     29.377004      7.837529
  C      17.767445     29.225496      8.592926
  H      18.808005     28.011993     10.055396
  H      17.011345     26.308902     10.247826
  H      14.617436     28.583674      7.441302
  C      18.891761     30.208447      8.485804
  Cl     18.527432     31.774870      9.364962
  H      19.106723     30.503592      7.441259
  H      19.818584     29.815564      8.942572
  C      16.419798     30.538338      6.864922
  C      15.084809     30.614538      6.165858
  H      17.230405     30.466141      6.105153
  H      16.617500     31.483068      7.414422
  C      14.812180     29.848010      5.013993
  C      13.559799     29.898065      4.387690
  C      12.528924     30.725751      4.886983
  C      12.801067     31.479129      6.051394
  C      14.051444     31.422643      6.676979
  H      15.604105     29.207893      4.592557
  C      11.221967     30.851458      4.194723
  C      10.581117     29.750286      3.582307
  C      10.585560     32.110684      4.129136
  C       9.350228     29.891084      2.919079
  C       8.734920     31.162942      2.861011
  C       9.360084     32.259653      3.474637
  H      11.043168     28.751984      3.650045
  H      11.073887     32.988055      4.578496
  H       8.879424     33.249991      3.430202
  C       7.416756     31.294512      2.139694
  H       6.897308     32.229892      2.428406
  H       7.615140     31.381974      1.043457
  C       8.642456     28.725882      2.249694
  H       8.901996     28.739873      1.162752
  H       9.020427     27.757254      2.634874
  H      14.232100     32.016583      7.586993
  H      12.008762     32.109866      6.481869
  H      13.388039     29.317588      3.468118
324
Coordinates from ORCA-job input E -9763.435823502692
  C      -3.138789      9.020565      2.030142
  C      -4.446407      9.256311      2.504346
  C      -5.266195      8.197642      2.910343
  C      -4.802543      6.869110      2.858713
  C      -3.485360      6.632475      2.416364
  C      -2.666673      7.690883      2.006908
  H      -1.637678      7.490306      1.671616
  H      -3.096543      5.601981      2.400609
  H      -4.831437     10.287316      2.521836
  H      -6.289352      8.402042      3.262897
  C      -5.672801      5.736006      3.312742
  Cl     -5.414821      5.363604      5.079072
  H      -5.450909      4.800007      2.766296
  H      -6.747386      5.972910      3.199823
  C      -1.156547     11.395706     -0.182881
  C      -0.888901     12.456456      0.698643
  C      -1.869735     10.249266      0.205253
  C      -1.305925     12.355848      2.041739
  C      -2.307351     10.158632      1.554085
  H      -0.827623     11.484029     -1.231860
  C      -2.003991     11.205815      2.445182
  H      -2.333292     11.114752      3.493011
  C      -2.315491      9.248273     -0.852863
  C      -3.797139      9.446162     -1.128400
  H      -2.129598      8.202698     -0.542416
  H      -1.725637      9.420745     -1.776818
  C      -4.765266      8.477063     -0.809131
  C      -6.125944      8.790900     -0.892264
  C      -6.569567     10.082409     -1.258650
  C      -5.601561     11.047378     -1.641528
  C      -4.242480     10.693942     -1.588804
  H      -4.453854      7.487314     -0.441398
  H      -6.874747      8.040148     -0.596592
  H      -3.494494     11.460948     -1.845826
  C      -8.024141     10.383322     -1.185578
  C      -8.963649      9.558559     -1.841488
  C     -10.336711      9.811825     -1.743268
  C     -10.816907     10.898693     -0.987393
  C      -8.510901     11.466003     -0.417817
  C      -9.883810     11.717287     -0.320836
  H      -8.602717      8.714748     -2.449098
  H     -11.052021      9.156304     -2.264795
  H      -7.800832     12.105076      0.129573
  H     -10.242155     12.557949      0.294055
  C     -12.288619     11.148744     -0.852388
  Cl    -12.982610     10.277627      0.592006
  H     -12.851154     10.784023     -1.732277
  H     -12.512478     12.221474     -0.700964
  C      -1.037678     13.493363      3.000913
  C       0.163405     14.331745      2.635899
  H      -0.949517     13.113309      4.039607
  H      -1.921534     14.176921      3.010548
  C      -0.236757     13.727153      0.214572
  C       0.542241     14.457807      1.282356
  H      -1.048403     14.402250     -0.149287
  H       0.404415     13.529173     -0.668704
  C       0.886683     15.044003      3.609958
  C       1.943052     15.890021      3.256275
  C       1.607801     15.301901      0.938359
  C       2.317147     16.047541      1.903004
  H       1.865675     15.416690     -0.126234
  H       0.611671     14.932399      4.671036
  H       2.502115     16.421073      4.041158
  C       3.354637     17.019243      1.482266
  C       4.132327     16.815150      0.319742
  C       5.003569     17.803562     -0.151070
  C       5.140691     19.036554      0.517057
  C       4.406062     19.220529      1.705802
  H       4.047947     15.864449     -0.227885
  H       5.579212     17.622712     -1.073200
  C       3.534364     18.234730      2.178958
  H       4.468574     20.181036      2.238720
  H       2.934459     18.442910      3.076959
  C      -5.933524     12.469905     -2.048763
  C      -5.245870     13.512377     -1.178797
  H      -7.030611     12.632643     -2.049608
  H      -5.611573     12.630987     -3.100651
  C      -4.838710     13.218809      0.138288
  C      -4.128011     14.148435      0.903594
  C      -4.949499     14.795260     -1.680579
  C      -4.250520     15.734212     -0.910153
  C      -3.805555     15.426075      0.396166
  H      -5.028683     12.218605      0.554444
  H      -3.769377     13.847910      1.898046
  H      -5.258132     15.060060     -2.704909
  H      -4.031687     16.727913     -1.331104
  C      -2.967363     16.382488      1.167525
  C      -1.897647     17.023968      0.504162
  C      -1.022546     17.904687      1.152719
  C      -3.188950     16.686466      2.538874
  C      -2.279807     17.539431      3.190988
  C      -1.193344     18.134290      2.534955
  H      -1.737786     16.809932     -0.564920
  H      -2.454739     17.781819      4.252561
  C      -4.474807     16.328121      3.271412
  C      -5.431158     17.503968      3.177334
  H      -4.258797     16.106123      4.335875
  H      -4.949249     15.428261      2.838154
  C      -5.757486     18.294159      4.290755
  C      -6.531142     19.452816      4.131178
  C      -7.000388     19.859519      2.866712
  C      -6.690589     19.056336      1.733002
  C      -5.921822     17.898248      1.918288
  H      -5.386083     18.015972      5.289922
  H      -6.774883     20.072476      5.007989
  H      -5.653080     17.303222      1.031995
  C      -7.723059     21.157869      2.751667
  C      -9.053404     21.250501      2.296707
  C      -9.679149     22.497598      2.160000
  C      -8.998129     23.686740      2.482427
  C      -7.674701     23.594279      2.957371
  C      -7.051372     22.352263      3.094456
  H      -9.602334     20.331367      2.041172
  H      -6.007553     22.295806      3.437404
  H      -7.119893     24.515031      3.196201
  H     -10.716722     22.549574      1.793041
  C      -9.648364     25.028020      2.316843
  Cl     -8.890047     26.004467      0.969094
  H      -9.535930     25.653931      3.222697
  H     -10.723033     24.937410      2.071942
  C      -7.055922     19.474923      0.318286
  C      -6.594194     20.883818     -0.000308
  H      -8.152521     19.414394      0.155560
  H      -6.603428     18.743201     -0.384973
  C      -5.294639     21.313591      0.337548
  C      -4.939078     22.663855      0.239449
  C      -5.871136     23.626036     -0.208702
  C      -7.490231     21.828555     -0.528733
  C      -7.139413     23.177526     -0.633815
  H      -4.568882     20.587096      0.737456
  H      -3.928429     22.985827      0.536570
  H      -8.511610     21.511866     -0.792567
  H      -7.889872     23.914587     -0.954240
  C      -5.613879     25.081065     -0.113756
  C      -5.070863     25.619252      1.070570
  C      -4.985768     27.003469      1.277285
  C      -6.015484     25.975332     -1.127975
  C      -5.899349     27.357420     -0.944053
  C      -5.409133     27.888530      0.261619
  H      -4.768997     24.933313      1.878310
  H      -6.418784     25.577290     -2.071231
  H      -6.211991     28.043415     -1.747718
  C      -4.517921     27.573176      2.597501
  C      -3.819848     28.904463      2.452066
  C      -4.233665     29.787463      1.430893
  C      -5.367741     29.377152      0.520315
  H      -6.331557     29.672954      1.002727
  H      -5.331014     29.942198     -0.433364
  H      -3.874072     26.847763      3.135300
  H      -5.414592     27.716355      3.249212
  C      -2.794670     29.302301      3.321139
  C      -3.601714     31.032842      1.316779
  C      -2.590501     31.449245      2.208221
  C      -2.175767     30.562919      3.237047
  H      -2.458996     28.601172      4.103533
  H      -3.925215     31.729374      0.526277
  C      -1.984998     32.794506      2.007176
  C      -1.366899     33.115172      0.778421
  C      -0.791553     34.373580      0.567547
  C      -2.030840     33.791178      3.006722
  C      -1.454843     35.049007      2.795056
  C      -0.824109     35.358150      1.574004
  H      -1.323604     32.350515     -0.012114
  H      -0.298683     34.595415     -0.392234
  H      -2.545343     33.579939      3.956389
  H      -1.497914     35.809951      3.590244
  C      -0.164527     36.687857      1.366443
  Cl      1.588531     36.643600      1.869537
  H      -0.639134     37.483441      1.970936
  H      -0.171436     36.990832      0.302556
  C      -1.046825     30.875548      4.205612
  C       0.099998     18.600448      0.418312
  C      -0.203621     19.014024      3.259406
  C       0.315184     20.144410      2.399170
  H       0.655088     18.369173      3.566781
  H      -0.638493     19.404721      4.201713
  C       0.445103     19.948185      1.008435
  H      -0.137659     18.690988     -0.661179
  H       1.009727     17.958765      0.473569
  C       0.942671     20.996563      0.217376
  C       0.682367     21.383399      2.947896
  C       1.196248     22.430986      2.159093
  C       1.342871     22.230820      0.760120
  H       1.050559     20.834792     -0.868112
  H       0.559099     21.552622      4.029926
  C       1.571063     23.716077      2.811189
  C       2.562150     23.766939      3.814394
  C       0.935294     24.922310      2.452726
  C       1.280688     26.134425      3.064798
  C       2.272487     26.185834      4.064710
  C       2.907048     24.979357      4.425566
  H       3.693730     24.992323      5.197377
  H       3.085189     22.841079      4.098439
  H       0.142933     24.904799      1.687855
  H       0.765096     27.058678      2.764889
  C       2.633124     27.486814      4.774140
  C       0.881433     29.225744      4.390431
  C       1.023759     30.948159      2.718948
  C       0.301734     30.339222      3.763213
  H      -1.295978     30.439857      5.193901
  H      -0.957004     31.968440      4.352209
  C       2.158264     28.729314      4.057342
  C       2.915126     29.400591      3.056277
  C       2.297914     30.486550      2.386756
  H       0.596023     31.805720      2.178858
  H       2.850251     30.990352      1.579655
  H       0.324752     28.721192      5.198038
  H       3.728794     27.518698      4.945062
  H       2.170302     27.463666      5.785236
  C       4.353475     29.133949      2.776713
  C       4.952806     27.853949      2.717848
  C       6.341475     27.718202      2.559567
  C       7.176000     28.840653      2.418726
  C       6.579815     30.120816      2.400408
  C       5.201844     30.251493      2.600854
  H       4.334339     26.948385      2.788502
  H       6.784224     26.708693      2.549907
  H       4.773300     31.263512      2.661818
  C       6.017942     20.138574     -0.053679
  C       5.504244     21.526099      0.276792
  H       6.054271     20.015947     -1.157532
  H       7.063308     20.013239      0.295362
  C       6.235726     22.485053      1.025551
  C       5.645741     23.747618      1.260213
  C       4.336007     24.034363      0.854118
  C       4.205207     21.848618     -0.147815
  C       3.582377     23.065665      0.165538
  H       3.631578     21.082282     -0.693099
  H       6.214001     24.499512      1.829774
  H       3.882372     25.005286      1.106544
  C       2.096704     23.225324     -0.112788
  H       1.879488     23.009410     -1.179003
  H       1.786284     24.268103      0.083445
  C       7.578436     22.176565      1.586394
  C       7.761613     21.066610      2.443504
  C       9.021915     20.754387      2.960550
  C      10.149109     21.538216      2.641501
  C       9.966129     22.656117      1.807046
  C       8.701321     22.974628      1.289944
  H       6.895487     20.443430      2.713624
  H       9.138958     19.885537      3.627086
  H      10.834189     23.280357      1.539880
  H       8.582556     23.839541      0.618918
  C      11.501410     21.196872      3.236712
  C      11.575166     21.612648      4.697244
  H      12.298747     21.716260      2.666771
  H      11.681869     20.111003      3.130823
  C      11.693531     22.984693      4.987820
  C      11.675243     23.474728      6.296688
  C      11.534054     22.570858      7.373781
  C      11.405699     21.204817      7.097726
  C      11.426129     20.704020      5.775878
  C      11.272789     19.237194      5.570683
  H      11.310916     20.489363      7.930214
  H      11.794087     23.697205      4.152568
  C      12.276137     18.466267      4.942687
  C      12.115099     17.088310      4.761713
  C      10.950010     16.432851      5.207416
  C       9.951739     17.195721      5.842624
  C      10.112885     18.574661      6.026816
  H      13.203318     18.957490      4.610260
  H      12.907925     16.505834      4.266432
  H       9.030902     16.701334      6.190378
  H       9.320660     19.161354      6.516582
  C      10.760197     14.964859      4.969872
  Cl     10.035052     14.647388      3.327554
  H      10.069313     14.514102      5.706781
  H      11.720325     14.415695      4.993328
  C      11.562774     23.137542      8.778827
  C      12.603668     24.230808      8.897367
  H      11.730033     22.340164      9.529774
  H      10.559109     23.571521      9.008545
  C      12.745171     25.124120      7.811138
  C      11.827793     24.941113      6.624127
  H      12.183889     25.516822      5.747154
  H      10.823894     25.357286      6.881487
  C      13.449121     24.379565     10.008839
  C      14.428277     25.381580     10.039581
  C      14.604639     26.258428      8.946065
  C      13.738269     26.107553      7.840010
  H      13.863075     26.753059      6.957886
  H      15.062194     25.486123     10.932282
  H      13.343750     23.695368     10.865870
  C      15.678548     27.281359      8.915900
  C      16.859609     27.150861      9.675989
  C      17.871176     28.112562      9.580100
  C      15.563785     28.409312      8.073255
  C      16.579874     29.362632      7.937698
  C      17.761911     29.214933      8.711861
  H      18.787370     27.997028     10.180993
  H      17.004706     26.276421     10.326633
  H      14.638312     28.557492      7.501817
  C      18.879545     30.208097      8.632642
  Cl     18.487074     31.764676      9.516558
  H      19.110460     30.512478      7.594174
  H      19.801386     29.819072      9.102479
  C      16.432225     30.529756      6.971125
  C      15.102504     30.609413      6.262726
  H      17.248686     30.462840      6.216999
  H      16.624165     31.471618      7.527097
  C      14.836640     29.848455      5.105487
  C      13.588878     29.903402      4.470513
  C      12.556009     30.731220      4.965392
  C      12.821499     31.479027      6.134957
  C      14.066896     31.417179      6.769562
  H      15.629897     29.208157      4.687020
  C      11.254183     30.862613      4.265333
  C      10.614662     29.765451      3.643958
  C      10.621919     32.123722      4.198981
  C       9.389311     29.912198      2.971881
  C       8.778020     31.185973      2.914216
  C       9.401963     32.278612      3.535868
  H      11.073680     28.765735      3.710191
  H      11.109631     32.998717      4.653435
  H       8.924782     33.270551      3.491568
  C       7.465737     31.323914      2.183459
  H       6.945914     32.258846      2.472844
  H       7.672757     31.416766      1.089305
  C       8.684087     28.751377      2.292319
  H       8.953438     28.768322      1.207919
  H       9.056128     27.780593      2.677669
  H      14.241506     32.005991      7.683966
  H      12.027603     32.109129      6.563193
  H      13.422957     29.326270      3.547863
324
Coordinates from ORCA-job input E -9763.436090449935
  C      -3.106706      8.993885      2.070021
  C      -4.413854      9.219319      2.550649
  C      -5.222136      8.154452      2.963373
  C      -4.746865      6.829946      2.912802
  C      -3.430277      6.603882      2.463445
  C      -2.622881      7.668515      2.047625
  H      -1.593899      7.476001      1.707661
  H      -3.032115      5.576949      2.448742
  H      -4.807816     10.246933      2.567068
  H      -6.244966      8.350697      3.321458
  C      -5.604652      5.690110      3.373816
  Cl     -5.338103      5.327821      5.140869
  H      -5.374921      4.754154      2.830549
  H      -6.681863      5.915754      3.262993
  C      -1.153955     11.380924     -0.156736
  C      -0.891576     12.446755      0.720628
  C      -1.856105     10.229588      0.237324
  C      -1.302296     12.346020      2.065558
  C      -2.286849     10.138304      1.588472
  H      -0.830545     11.469129     -1.207407
  C      -1.988108     11.190484      2.475022
  H      -2.312236     11.099788      3.524510
  C      -2.301537      9.224962     -0.817545
  C      -3.783898      9.421626     -1.091111
  H      -2.114606      8.180376     -0.505018
  H      -1.713109      9.395327     -1.742779
  C      -4.751248      8.453567     -0.766708
  C      -6.112154      8.766402     -0.850892
  C      -6.556805     10.056190     -1.222288
  C      -5.589265     11.020577     -1.608031
  C      -4.230212     10.667349     -1.555921
  H      -4.439262      7.465843     -0.393947
  H      -6.860590      8.016125     -0.553290
  H      -3.482692     11.433864     -1.815479
  C      -8.012179     10.354305     -1.151840
  C      -8.947983      9.527839     -1.810931
  C     -10.321996      9.777217     -1.715559
  C     -10.807019     10.861424     -0.959070
  C      -8.503886     11.434213     -0.383205
  C      -9.877692     11.681538     -0.289128
  H      -8.583360      8.686797     -2.420121
  H     -11.034115      9.120428     -2.239849
  H      -7.797026     12.074353      0.167018
  H     -10.239776     12.519493      0.327240
  C     -12.279922     11.107382     -0.827781
  Cl    -12.972751     10.245908      0.622744
  H     -12.839404     10.733586     -1.705779
  H     -12.507881     12.180528     -0.685580
  C      -1.045294     13.489500      3.020516
  C       0.136838     14.349953      2.644132
  H      -0.939657     13.112079      4.058499
  H      -1.942450     14.155666      3.038805
  C      -0.255542     13.722182      0.227076
  C       0.511599     14.472962      1.289315
  H      -1.075450     14.382912     -0.145014
  H       0.389909     13.524908     -0.653257
  C       0.848082     15.083884      3.611109
  C       1.890433     15.943763      3.249918
  C       1.563488     15.331585      0.937750
  C       2.262331     16.096207      1.895361
  H       1.815609     15.443837     -0.128407
  H       0.575635     14.977240      4.673345
  H       2.439684     16.490806      4.030634
  C       3.295286     17.070817      1.468603
  C       4.070575     16.864117      0.304594
  C       4.943396     17.849688     -0.169366
  C       5.085819     19.083132      0.497004
  C       4.351603     19.271111      1.685270
  H       3.985181     15.912299     -0.240770
  H       5.517669     17.665103     -1.091605
  C       3.478362     18.287923      2.161672
  H       4.417560     20.232409      2.216436
  H       2.880065     18.500581      3.059723
  C      -5.922223     12.439665     -2.026236
  C      -5.239838     13.489922     -1.161649
  H      -7.019534     12.600327     -2.032108
  H      -5.597305     12.593847     -3.078304
  C      -4.836401     13.207120      0.158867
  C      -4.128766     14.143449      0.919034
  C      -4.944776     14.769844     -1.671853
  C      -4.250686     15.715913     -0.905959
  C      -3.810760     15.419036      0.404934
  H      -5.022966     12.208902      0.581045
  H      -3.775063     13.851985      1.917875
  H      -5.249637     15.026066     -2.699470
  H      -4.036757     16.708730     -1.331276
  C      -2.975747     16.382757      1.170440
  C      -1.915511     17.033041      0.501150
  C      -1.048046     17.925984      1.143465
  C      -3.192733     16.685601      2.542870
  C      -2.288822     17.548073      3.189245
  C      -1.212923     18.154786      2.526456
  H      -1.758674     16.819743     -0.568532
  H      -2.460434     17.788738      4.251726
  C      -4.469099     16.310942      3.284014
  C      -5.440851     17.475119      3.197977
  H      -4.243604     16.091235      4.346949
  H      -4.935487     15.405600      2.853601
  C      -5.784557     18.247435      4.318524
  C      -6.576589     19.395188      4.169048
  C      -7.045671     19.808406      2.907078
  C      -6.718241     19.023197      1.765647
  C      -5.934576     17.873973      1.941530
  H      -5.417681     17.960432      5.316884
  H      -6.832028     20.002133      5.051398
  H      -5.656975     17.291146      1.050042
  C      -7.774441     21.103630      2.796629
  C      -9.104505     21.192586      2.342838
  C      -9.729010     22.439511      2.196231
  C      -9.047328     23.630015      2.508966
  C      -7.725482     23.540899      2.989821
  C      -7.103613     22.299616      3.136695
  H      -9.652984     20.272080      2.091216
  H      -6.061457     22.244100      3.484518
  H      -7.168301     24.463128      3.216723
  H     -10.766777     22.489449      1.829426
  C      -9.693129     24.970823      2.320208
  Cl     -8.850213     25.971974      1.043645
  H      -9.646727     25.583010      3.241388
  H     -10.748434     24.878272      2.002654
  C      -7.086061     19.451757      0.354156
  C      -6.621121     20.861450      0.041583
  H      -8.183237     19.395837      0.194662
  H      -6.637813     18.723098     -0.354902
  C      -5.319429     21.286686      0.376358
  C      -4.957598     22.634644      0.270337
  C      -5.885357     23.598591     -0.182383
  C      -7.511426     21.806823     -0.496326
  C      -7.154030     23.153021     -0.609752
  H      -4.593889     20.556926      0.770572
  H      -3.947474     22.954055      0.571212
  H      -8.530257     21.490590     -0.769706
  H      -7.901358     23.892184     -0.932646
  C      -5.619232     25.052568     -0.102523
  C      -5.057640     25.600983      1.068030
  C      -4.953902     26.986968      1.255177
  C      -6.025746     25.938065     -1.122803
  C      -5.895577     27.320829     -0.957455
  C      -5.383256     27.862840      0.234417
  H      -4.748104     24.923113      1.879659
  H      -6.444538     25.532248     -2.055891
  H      -6.212739     27.999379     -1.765665
  C      -4.463380     27.566498      2.563062
  C      -3.769505     28.898020      2.399617
  C      -4.187798     29.770516      1.371481
  C      -5.326251     29.354391      0.469581
  H      -6.286958     29.668183      0.946734
  H      -5.285154     29.902722     -0.493700
  H      -3.808397     26.845483      3.093341
  H      -5.348051     27.711619      3.230396
  C      -2.745331     29.308215      3.264914
  C      -3.561042     31.017097      1.245929
  C      -2.549436     31.444477      2.131130
  C      -2.132198     30.570927      3.169591
  H      -2.409834     28.617326      4.056457
  H      -3.882382     31.702845      0.445505
  C      -1.951385     32.791802      1.921474
  C      -1.325693     33.103820      0.694548
  C      -0.755532     34.363297      0.476086
  C      -2.010770     33.797567      2.910940
  C      -1.440015     35.056468      2.691715
  C      -0.801150     35.357141      1.472793
  H      -1.273291     32.332215     -0.088615
  H      -0.255679     34.578295     -0.481632
  H      -2.531606     33.592357      3.858513
  H      -1.492860     35.824451      3.479500
  C      -0.145918     36.687877      1.258094
  Cl      1.602942     36.656302      1.775183
  H      -0.629431     37.486610      1.851278
  H      -0.146257     36.980741      0.191344
  C      -1.009953     30.903538      4.139803
  C       0.062566     18.631730      0.400807
  C      -0.230844     19.047215      3.245558
  C       0.279867     20.177657      2.380647
  H       0.632490     18.411166      3.557916
  H      -0.669554     19.439308      4.185559
  C       0.402161     19.981135      0.989349
  H      -0.185066     18.721816     -0.676500
  H       0.978584     17.998028      0.446967
  C       0.891407     21.031064      0.195081
  C       0.648961     21.417237      2.926632
  C       1.155541     22.466192      2.134964
  C       1.293482     22.265815      0.734964
  H       0.996418     20.868221     -0.890540
  H       0.532298     21.586141      4.009467
  C       1.544358     23.747740      2.784781
  C       2.532676     23.787066      3.791620
  C       0.926218     24.962459      2.424089
  C       1.287189     26.170484      3.035064
  C       2.277026     26.210178      4.037446
  C       2.893481     24.995323      4.401579
  H       3.677853     24.997742      5.175821
  H       3.041587     22.854692      4.080123
  H       0.132070     24.955091      1.661232
  H       0.783989     27.100809      2.733164
  C       2.652641     27.506739      4.747116
  C       0.913694     29.252103      4.344974
  C       1.085308     30.984244      2.686588
  C       0.344841     30.369014      3.714278
  H      -1.262804     30.480564      5.132677
  H      -0.928030     31.998852      4.271486
  C       2.194276     28.754606      4.028857
  C       2.968812     29.431002      3.044643
  C       2.364710     30.523257      2.373319
  H       0.668709     31.847878      2.147377
  H       2.931022     31.031567      1.578784
  H       0.345395     28.746359      5.143705
  H       3.747739     27.526210      4.922762
  H       2.185990     27.489387      5.756655
  C       4.411685     29.164678      2.788483
  C       5.009535     27.883926      2.728174
  C       6.400395     27.746415      2.589945
  C       7.239221     28.868956      2.469423
  C       6.645402     30.150558      2.452448
  C       5.264717     30.281888      2.634384
  H       4.388509     26.978793      2.781560
  H       6.839349     26.734527      2.578983
  H       4.836687     31.294243      2.693834
  C       5.966488     20.181394     -0.076283
  C       5.454187     21.571699      0.246056
  H       6.004540     20.054260     -1.179521
  H       7.010923     20.055446      0.275366
  C       6.186446     22.537699      0.985458
  C       5.593908     23.800908      1.213596
  C       4.281905     24.080981      0.809796
  C       4.152531     21.887335     -0.174661
  C       3.528067     23.105051      0.131337
  H       3.576993     21.113365     -0.706969
  H       6.161192     24.560660      1.775009
  H       3.825710     25.052009      1.056653
  C       2.041403     23.259497     -0.144895
  H       1.821821     23.036874     -1.209185
  H       1.729558     24.302709      0.045462
  C       7.532331     22.236703      1.541669
  C       7.730594     21.117240      2.382899
  C       8.996388     20.809426      2.888892
  C      10.114566     21.608647      2.576114
  C       9.916522     22.736444      1.758575
  C       8.646434     23.049408      1.251293
  H       6.872918     20.479443      2.645748
  H       9.124114     19.932715      3.542810
  H      10.776750     23.374021      1.497621
  H       8.517117     23.920859      0.590755
  C      11.475480     21.268233      3.152656
  C      11.560921     21.654178      4.620643
  H      12.262472     21.806488      2.586124
  H      11.664740     20.186480      3.022571
  C      11.703352     23.017811      4.938669
  C      11.698193     23.481811      6.257557
  C      11.546909     22.558313      7.316274
  C      11.396682     21.200102      7.012891
  C      11.403679     20.726073      5.681570
  C      11.225379     19.266315      5.447500
  H      11.294809     20.469453      7.831224
  H      11.812769     23.745039      4.117263
  C      12.213429     18.491208      4.800994
  C      12.026206     17.120936      4.589140
  C      10.849895     16.477456      5.022441
  C       9.867750     17.243930      5.678080
  C      10.054895     18.615100      5.892719
  H      13.148500     18.972670      4.476487
  H      12.807265     16.535181      4.079264
  H       8.938678     16.759017      6.017122
  H       9.275003     19.205113      6.398010
  C      10.630922     15.019600      4.749738
  Cl      9.889431     14.757895      3.105152
  H       9.936350     14.563619      5.479943
  H      11.580696     14.452278      4.753193
  C      11.582552     23.093366      8.733168
  C      12.628653     24.177849      8.877192
  H      11.746041     22.278100      9.465567
  H      10.581641     23.527397      8.974803
  C      12.782501     25.091570      7.809839
  C      11.872910     24.939506      6.612257
  H      12.244632     25.524547      5.747702
  H      10.873513     25.367568      6.868080
  C      13.464597     24.303074      9.998874
  C      14.443818     25.303349     10.059528
  C      14.632063     26.201895      8.985754
  C      13.776727     26.072754      7.868364
  H      13.910637     26.733708      6.999127
  H      15.070077     25.387132     10.959797
  H      13.349270     23.603338     10.841958
  C      15.701574     27.229704      8.990015
  C      16.869501     27.097361      9.770276
  C      17.876117     28.066792      9.705095
  C      15.596076     28.367605      8.159711
  C      16.608069     29.328743      8.054045
  C      17.776018     29.179647      8.849008
  H      18.781441     27.949638     10.321933
  H      17.009585     26.215776     10.412334
  H      14.682297     28.516439      7.569958
  C      18.889532     30.179423      8.801200
  Cl     18.472234     31.724958      9.692566
  H      19.138229     30.495007      7.770193
  H      19.804439     29.790232      9.284269
  C      16.468839     30.507503      7.100316
  C      15.144913     30.596486      6.381813
  H      17.291411     30.448710      6.352074
  H      16.655658     31.443073      7.668366
  C      14.887148     29.849919      5.213364
  C      13.643701     29.912176      4.570501
  C      12.607500     30.734652      5.067223
  C      12.864962     31.468263      6.247592
  C      14.105619     31.398298      6.890609
  H      15.682914     29.214124      4.792810
  C      11.309442     30.872606      4.361537
  C      10.671897     29.780706      3.728710
  C      10.679395     32.135094      4.299958
  C       9.450874     29.934004      3.049893
  C       8.842127     31.209634      2.997011
  C       9.463916     32.296790      3.630128
  H      11.129266     28.779690      3.790240
  H      11.165403     33.006454      4.763140
  H       8.989102     33.290003      3.589565
  C       7.535721     31.354784      2.256598
  H       7.014223     32.287432      2.550359
  H       7.752204     31.458504      1.165271
  C       8.748613     28.777990      2.358215
  H       9.028548     28.799404      1.276626
  H       9.114976     27.804622      2.742512
  H      14.273524     31.976017      7.813302
  H      12.068812     32.094474      6.677362
  H      13.485116     29.346568      3.639446
324
Coordinates from ORCA-job input E -9763.436273261515
  C      -3.061734      8.959636      2.091462
  C      -4.365135      9.171099      2.588371
  C      -5.159066      8.097128      3.005368
  C      -4.672781      6.777093      2.942673
  C      -3.359779      6.564833      2.476524
  C      -2.566553      7.638713      2.056813
  H      -1.539658      7.456822      1.704761
  H      -2.952759      5.541521      2.451933
  H      -4.767654     10.195179      2.615133
  H      -6.179221      8.282607      3.376722
  C      -5.515212      5.627521      3.407997
  Cl     -5.228537      5.262419      5.171382
  H      -5.281193      4.695505      2.859784
  H      -6.595545      5.843173      3.307920
  C      -1.156964     11.373497     -0.147365
  C      -0.890739     12.436576      0.732488
  C      -1.844615     10.214609      0.249930
  C      -1.282477     12.325229      2.082017
  C      -2.256917     10.113023      1.606248
  H      -0.848058     11.469853     -1.201690
  C      -1.953687     11.162123      2.494425
  H      -2.263291     11.063621      3.547625
  C      -2.295132      9.211294     -0.804108
  C      -3.780975      9.403793     -1.062646
  H      -2.102459      8.166800     -0.495344
  H      -1.716048      9.386230     -1.734316
  C      -4.742013      8.433931     -0.725283
  C      -6.104757      8.741936     -0.798886
  C      -6.556942     10.028738     -1.171922
  C      -5.595934     10.994827     -1.569709
  C      -4.235412     10.646321     -1.528167
  H      -4.423328      7.448924     -0.350740
  H      -6.848152      7.990197     -0.492308
  H      -3.492729     11.413932     -1.798193
  C      -8.013057     10.321053     -1.093153
  C      -8.949373      9.488755     -1.744190
  C     -10.323814      9.733189     -1.641936
  C     -10.808776     10.818457     -0.886992
  C      -8.504767     11.401367     -0.324933
  C      -9.878962     11.643938     -0.224282
  H      -8.584948      8.646888     -2.352421
  H     -11.036309      9.072540     -2.160937
  H      -7.797352     12.045726      0.219650
  H     -10.240898     12.482778      0.391027
  C     -12.281932     11.059261     -0.748569
  Cl    -12.960724     10.208828      0.715425
  H     -12.845260     10.673703     -1.618977
  H     -12.514242     12.132601     -0.615136
  C      -1.020392     13.463432      3.041901
  C       0.145086     14.340313      2.651230
  H      -0.889168     13.077470      4.073761
  H      -1.925901     14.117129      3.084148
  C      -0.271198     13.719059      0.236077
  C       0.501882     14.471789      1.292476
  H      -1.100298     14.374408     -0.124442
  H       0.366085     13.529653     -0.651905
  C       0.862509     15.076543      3.611933
  C       1.893317     15.946001      3.241216
  C       1.541873     15.341004      0.931161
  C       2.247006     16.107214      1.882726
  H       1.778493     15.459440     -0.137869
  H       0.604479     14.963926      4.677186
  H       2.448220     16.493388      4.017726
  C       3.268901     17.090270      1.448349
  C       4.027839     16.895549      0.271316
  C       4.891951     17.886939     -0.206773
  C       5.041741     19.114743      0.468282
  C       4.323663     19.291008      1.668218
  H       3.937327     15.948185     -0.280916
  H       5.453652     17.710967     -1.138431
  C       3.458843     18.302203      2.148388
  H       4.395509     20.248034      2.206434
  H       2.873567     18.506456      3.057039
  C      -5.938004     12.410958     -1.990672
  C      -5.252295     13.467599     -1.136396
  H      -7.035982     12.567339     -1.986073
  H      -5.623615     12.561905     -3.046386
  C      -4.832134     13.190396      0.179960
  C      -4.124553     14.134123      0.931195
  C      -4.973637     14.749269     -1.651817
  C      -4.280895     15.703017     -0.894294
  C      -3.825128     15.412302      0.412821
  H      -5.005429     12.191342      0.605867
  H      -3.755134     13.846770      1.925344
  H      -5.293070     15.001617     -2.675991
  H      -4.079973     16.696946     -1.323100
  C      -2.995222     16.386730      1.170926
  C      -1.948301     17.050119      0.493303
  C      -1.087861     17.955282      1.128734
  C      -3.210397     16.693498      2.543021
  C      -2.312530     17.567265      3.181997
  C      -1.246691     18.183797      2.512274
  H      -1.795387     16.837493     -0.577020
  H      -2.481453     17.808620      4.244765
  C      -4.483470     16.318839      3.290351
  C      -5.459012     17.479821      3.199379
  H      -4.253583     16.107584      4.354037
  H      -4.948721     15.409722      2.867518
  C      -5.804016     18.257202      4.315887
  C      -6.602548     19.400095      4.161561
  C      -7.078074     19.801008      2.898392
  C      -6.749256     19.010987      1.761186
  C      -5.957484     17.868264      1.941329
  H      -5.433372     17.977859      5.315094
  H      -6.858239     20.011764      5.040626
  H      -5.681642     17.280005      1.052796
  C      -7.816468     21.089229      2.774124
  C      -9.151913     21.160903      2.335051
  C      -9.781797     22.402229      2.161045
  C      -9.097595     23.602966      2.424422
  C      -7.769481     23.531638      2.892881
  C      -7.144203     22.296410      3.070812
  H      -9.700973     20.232232      2.116632
  H      -6.096991     22.252803      3.404969
  H      -7.208304     24.461316      3.076806
  H     -10.823407     22.439169      1.803536
  C      -9.757547     24.934900      2.214100
  Cl     -8.902294     25.942676      0.952929
  H      -9.741329     25.552268      3.133336
  H     -10.804738     24.825184      1.875696
  C      -7.115611     19.437306      0.348831
  C      -6.644625     20.845469      0.036104
  H      -8.212914     19.385869      0.189593
  H      -6.668535     18.707138     -0.359351
  C      -5.341951     21.265222      0.374368
  C      -4.974275     22.611979      0.270893
  C      -5.895838     23.580695     -0.184158
  C      -7.532381     21.796781     -0.496076
  C      -7.168369     23.141512     -0.607724
  H      -4.623774     20.533859      0.778818
  H      -3.960886     22.925028      0.567365
  H      -8.556799     21.488011     -0.756964
  H      -7.910464     23.884213     -0.934712
  C      -5.618992     25.033126     -0.108232
  C      -5.041560     25.582751      1.054218
  C      -4.923955     26.969439      1.234178
  C      -6.030060     25.918006     -1.127732
  C      -5.888110     27.300258     -0.969384
  C      -5.357372     27.843863      0.214021
  H      -4.730618     24.906788      1.867121
  H      -6.464221     25.512012     -2.053698
  H      -6.208227     27.977645     -1.777464
  C      -4.415871     27.549133      2.535799
  C      -3.727779     28.883758      2.367481
  C      -4.149327     29.753113      1.338150
  C      -5.289420     29.336531      0.438773
  H      -6.248304     29.661338      0.912128
  H      -5.243355     29.876655     -0.528994
  H      -3.749971     26.828987      3.053852
  H      -5.290678     27.689210      3.216912
  C      -2.706660     29.301026      3.234030
  C      -3.525315     31.001126      1.208582
  C      -2.518023     31.435117      2.094809
  C      -2.100234     30.567074      3.137740
  H      -2.370561     28.613942      4.028691
  H      -3.846974     31.683813      0.405561
  C      -1.923238     32.783685      1.881764
  C      -1.281351     33.087520      0.661260
  C      -0.711326     34.346864      0.440989
  C      -2.001356     33.797491      2.861507
  C      -1.430903     35.056294      2.640464
  C      -0.774393     35.348581      1.428879
  H      -1.214810     32.309347     -0.114314
  H      -0.198219     34.555768     -0.511100
  H      -2.535100     33.597855      3.803135
  H      -1.498166     35.830834      3.420748
  C      -0.115530     36.677734      1.214953
  Cl      1.624456     36.649494      1.761643
  H      -0.608647     37.480788      1.794262
  H      -0.097897     36.962358      0.146106
  C      -0.986874     30.914769      4.113475
  C       0.008750     18.673450      0.376647
  C      -0.269936     19.084800      3.227303
  C       0.233683     20.215981      2.359791
  H       0.597418     18.455271      3.541710
  H      -0.711020     19.477024      4.166185
  C       0.346749     20.022536      0.967362
  H      -0.253447     18.767830     -0.696867
  H       0.930578     18.046987      0.407469
  C       0.832628     21.074218      0.172911
  C       0.606677     21.454018      2.906520
  C       1.110638     22.504157      2.115258
  C       1.240260     22.306681      0.713869
  H       0.933406     20.913330     -0.913448
  H       0.497037     21.619879      3.990618
  C       1.514889     23.779777      2.766250
  C       2.512082     23.806455      3.764836
  C       0.906853     25.001958      2.413987
  C       1.286223     26.204622      3.024225
  C       2.285532     26.231771      4.017858
  C       2.891578     25.009281      4.374075
  H       3.683113     25.001154      5.140988
  H       3.014076     22.868355      4.047096
  H       0.105591     25.005568      1.658629
  H       0.790689     27.140687      2.727282
  C       2.676439     27.521255      4.732598
  C       0.939929     29.267921      4.328471
  C       1.126151     31.014824      2.686936
  C       0.375754     30.389009      3.701237
  H      -1.243586     30.495700      5.107056
  H      -0.915539     32.011426      4.238428
  C       2.225203     28.776196      4.022216
  C       3.008543     29.462172      3.051748
  C       2.409698     30.558762      2.382909
  H       0.711919     31.880418      2.149053
  H       2.984493     31.076172      1.600373
  H       0.363083     28.752467      5.114834
  H       3.772243     27.530254      4.903184
  H       2.213634     27.502700      5.744008
  C       4.454089     29.198066      2.807052
  C       5.051041     27.917587      2.734574
  C       6.443433     27.781020      2.609396
  C       7.284568     28.903752      2.511997
  C       6.692660     30.186109      2.509282
  C       5.310131     30.316540      2.680074
  H       4.428790     27.012280      2.772232
  H       6.881559     26.769384      2.586908
  H       4.882787     31.328360      2.752726
  C       5.916351     20.218543     -0.103689
  C       5.401490     21.605932      0.228506
  H       5.949563     20.098440     -1.207904
  H       6.962799     20.093478      0.242010
  C       6.133915     22.570711      0.969252
  C       5.540804     23.832920      1.200236
  C       4.229611     24.115392      0.796135
  C       4.100062     21.923190     -0.192123
  C       3.476339     23.141433      0.114067
  H       3.525163     21.151171     -0.728001
  H       6.107255     24.590116      1.764896
  H       3.773526     25.085939      1.045905
  C       1.990303     23.298591     -0.166413
  H       1.772836     23.074406     -1.230767
  H       1.680750     24.342903      0.020935
  C       7.482667     22.274712      1.520884
  C       7.693824     21.149302      2.350864
  C       8.964030     20.847696      2.849678
  C      10.074300     21.659822      2.541203
  C       9.862766     22.795668      1.738330
  C       8.588338     23.101803      1.237722
  H       6.842370     20.503286      2.613991
  H       9.101520     19.963364      3.490991
  H      10.716148     23.444098      1.481497
  H       8.448746     23.980611      0.589059
  C      11.442276     21.324263      3.105204
  C      11.536439     21.691492      4.577588
  H      12.220093     21.877257      2.540518
  H      11.640074     20.246015      2.959565
  C      11.698722     23.048635      4.912651
  C      11.706809     23.495451      6.237862
  C      11.549222     22.560156      7.284970
  C      11.382297     21.207663      6.964654
  C      11.376357     20.751193      5.627629
  C      11.183857     19.296021      5.376361
  H      11.276586     20.467618      7.774063
  H      11.814905     23.784651      4.099967
  C      12.159794     18.520633      4.712224
  C      11.957260     17.155403      4.482048
  C      10.777687     16.517481      4.914615
  C       9.808680     17.283653      5.589944
  C      10.011133     18.649620      5.822839
  H      13.097175     18.997553      4.387554
  H      12.728533     16.569442      3.957625
  H       8.877575     16.802896      5.929439
  H       9.241307     19.239843      6.343155
  C      10.540665     15.066662      4.620055
  Cl      9.775928     14.841760      2.980555
  H       9.850078     14.605297      5.350680
  H      11.484590     14.489941      4.601777
  C      11.596615     23.073770      8.709316
  C      12.650144     24.148788      8.865218
  H      11.758819     22.246347      9.428301
  H      10.600001     23.510833      8.963002
  C      12.810721     25.075260      7.810033
  C      11.902758     24.946404      6.608349
  H      12.286300     25.534026      5.750657
  H      10.909077     25.387159      6.865190
  C      13.486092     24.254515      9.989116
  C      14.470259     25.248640     10.064338
  C      14.663388     26.161842      9.003838
  C      13.810084     26.050359      7.883179
  H      13.946628     26.722517      7.022901
  H      15.095096     25.317022     10.966995
  H      13.367558     23.543122     10.822004
  C      15.735844     27.185788      9.024453
  C      16.900828     27.042147      9.807043
  C      17.908700     28.011220      9.758490
  C      15.635070     28.335032      8.209482
  C      16.647839     29.297002      8.120676
  C      17.813202     29.135811      8.917034
  H      18.811784     27.884356     10.376756
  H      17.038133     26.152580     10.438787
  H      14.723391     28.493484      7.618994
  C      18.927371     30.135522      8.887529
  Cl     18.508042     31.667565      9.801006
  H      19.178643     30.466686      7.862054
  H      19.840676     29.738562      9.367326
  C      16.512527     30.487777      7.181001
  C      15.189496     30.585189      6.461366
  H      17.335933     30.436211      6.433186
  H      16.697610     31.416695      7.760321
  C      14.935844     29.857308      5.280284
  C      13.692154     29.924132      4.638080
  C      12.651726     30.732465      5.148734
  C      12.905707     31.448719      6.340458
  C      14.146465     31.373892      6.982871
  H      15.734949     29.232943      4.848968
  C      11.354226     30.878826      4.443764
  C      10.716447     29.794804      3.797767
  C      10.724295     32.141964      4.398701
  C       9.496130     29.957032      3.119386
  C       8.889222     31.233770      3.080548
  C       9.509874     32.312525      3.729121
  H      11.172576     28.792608      3.848847
  H      11.208718     33.006833      4.875670
  H       9.035985     33.306598      3.699709
  C       7.585880     31.391840      2.336979
  H       7.064213     32.320327      2.643378
  H       7.807272     31.512306      1.248369
  C       8.794798     28.810431      2.411214
  H       9.081703     28.842264      1.331750
  H       9.155725     27.832174      2.788247
  H      14.311571     31.937424      7.914853
  H      12.106582     32.064327      6.780120
  H      13.536211     29.372221      3.698324
324
Coordinates from ORCA-job input E -9763.436388640548
  C      -3.047676      8.963823      2.117902
  C      -4.353481      9.164029      2.613040
  C      -5.134639      8.084373      3.039612
  C      -4.633120      6.769529      2.987647
  C      -3.317721      6.568777      2.523054
  C      -2.537224      7.648381      2.094015
  H      -1.507929      7.475458      1.744157
  H      -2.898898      5.550004      2.506225
  H      -4.767827     10.183648      2.631742
  H      -6.157034      8.261096      3.409310
  C      -5.461077      5.614409      3.465230
  Cl     -5.170147      5.271643      5.232574
  H      -5.215172      4.679633      2.926935
  H      -6.544082      5.815395      3.362953
  C      -1.167762     11.381116     -0.138672
  C      -0.909974     12.452152      0.734352
  C      -1.844758     10.218676      0.266581
  C      -1.300312     12.346096      2.084567
  C      -2.255606     10.122426      1.623819
  H      -0.860524     11.473766     -1.193889
  C      -1.961858     11.180133      2.504805
  H      -2.268466     11.085087      3.559262
  C      -2.288247      9.204976     -0.780390
  C      -3.774507      9.389126     -1.042856
  H      -2.092226      8.164026     -0.461821
  H      -1.708379      9.375049     -1.711003
  C      -4.732308      8.419537     -0.695290
  C      -6.096223      8.722611     -0.771212
  C      -6.552612     10.004876     -1.154749
  C      -5.594739     10.970515     -1.560970
  C      -4.233183     10.626401     -1.517973
  H      -4.410205      7.439181     -0.311385
  H      -6.837169      7.971496     -0.457039
  H      -3.492961     11.395207     -1.791809
  C      -8.009808     10.293232     -1.079779
  C      -8.943016      9.453430     -1.725576
  C     -10.318314      9.695034     -1.627142
  C     -10.807232     10.784792     -0.881281
  C      -8.505561     11.377702     -0.319936
  C      -9.880552     11.617423     -0.223004
  H      -8.575528      8.606989     -2.325717
  H     -11.028417      9.028510     -2.142055
  H      -7.800658     12.026879      0.222321
  H     -10.245601     12.460445      0.384817
  C     -12.281195     11.024253     -0.748626
  Cl    -12.962101     10.188974      0.723561
  H     -12.841992     10.627840     -1.615843
  H     -12.516052     12.098544     -0.627475
  C      -1.041709     13.489233      3.039985
  C       0.117963     14.370722      2.642924
  H      -0.903283     13.106414      4.072157
  H      -1.951680     14.136254      3.085338
  C      -0.296034     13.734844      0.230847
  C       0.474286     14.496064      1.283461
  H      -1.127276     14.385344     -0.133219
  H       0.342289     13.542972     -0.655918
  C       0.833416     15.113718      3.599814
  C       1.861122     15.984709      3.224591
  C       1.509737     15.368903      0.917408
  C       2.214267     16.140241      1.865172
  H       1.749402     15.478242     -0.152024
  H       0.576434     15.005183      4.665834
  H       2.416960     16.534612      3.998837
  C       3.231406     17.126564      1.427168
  C       3.987196     16.934379      0.247675
  C       4.849637     17.926958     -0.231186
  C       5.001697     19.153076      0.446151
  C       4.285717     19.327429      1.647905
  H       3.895191     15.988190     -0.306475
  H       5.409049     17.752579     -1.164596
  C       3.421482     18.338052      2.127988
  H       4.357650     20.284184      2.186746
  H       2.839255     18.540247      3.039263
  C      -5.940355     12.384463     -1.985859
  C      -5.253049     13.445562     -1.138171
  H      -7.038616     12.539597     -1.977091
  H      -5.630304     12.531812     -3.043368
  C      -4.822611     13.173125      0.175890
  C      -4.117469     14.123301      0.921354
  C      -4.986218     14.728334     -1.657430
  C      -4.295135     15.688068     -0.906050
  C      -3.827879     15.401945      0.398003
  H      -4.988919     12.174472      0.605926
  H      -3.737231     13.840094      1.912569
  H      -5.315772     14.977360     -2.679283
  H      -4.101178     16.681749     -1.338875
  C      -3.005192     16.384517      1.153723
  C      -1.963272     17.055721      0.475867
  C      -1.106917     17.964580      1.112083
  C      -3.219258     16.685746      2.527155
  C      -2.326725     17.564690      3.166404
  C      -1.267226     18.191361      2.495831
  H      -1.803977     16.838454     -0.592601
  H      -2.497754     17.805349      4.229076
  C      -4.485774     16.295945      3.278152
  C      -5.473838     17.446636      3.193449
  H      -4.249663     16.084554      4.340538
  H      -4.943545     15.383241      2.854722
  C      -5.830866     18.211337      4.314912
  C      -6.633671     19.352198      4.166080
  C      -7.099005     19.765188      2.903201
  C      -6.755003     18.989725      1.759963
  C      -5.961596     17.847195      1.934937
  H      -5.458569     17.929112      5.312771
  H      -6.901031     19.952247      5.049779
  H      -5.665575     17.276391      1.041229
  C      -7.839723     21.052765      2.782866
  C      -9.163150     21.123548      2.310696
  C      -9.795841     22.363139      2.135537
  C      -9.125586     23.563550      2.430615
  C      -7.810391     23.493718      2.933850
  C      -7.182818     22.259648      3.113902
  H      -9.701201     20.194910      2.065833
  H      -6.143707     22.217532      3.472844
  H      -7.261914     24.424194      3.147284
  H     -10.827666     22.398640      1.750366
  C      -9.792967     24.892756      2.223729
  Cl     -8.892251     25.945022      1.034428
  H      -9.832885     25.485014      3.159044
  H     -10.820999     24.777867      1.832081
  C      -7.121231     19.422267      0.349389
  C      -6.648418     20.830086      0.038293
  H      -8.218687     19.372474      0.190574
  H      -6.675300     18.693928     -0.361440
  C      -5.345217     21.247088      0.377950
  C      -4.973588     22.592398      0.271453
  C      -5.890737     23.562441     -0.189356
  C      -7.533462     21.783086     -0.495572
  C      -7.164866     23.126038     -0.610692
  H      -4.630559     20.515268      0.788049
  H      -3.958177     22.902024      0.563977
  H      -8.560176     21.478867     -0.752930
  H      -7.903708     23.869824     -0.942554
  C      -5.608547     25.014114     -0.119884
  C      -5.026849     25.566552      1.038755
  C      -4.901168     26.953287      1.211867
  C      -6.017007     25.896116     -1.143203
  C      -5.865307     27.278080     -0.992685
  C      -5.328897     27.824690      0.186984
  H      -4.721747     24.893830      1.856465
  H      -6.453711     25.487898     -2.067034
  H      -6.182624     27.953326     -1.803747
  C      -4.386695     27.533992      2.510537
  C      -3.699868     28.869064      2.341282
  C      -4.115501     29.734599      1.306729
  C      -5.250953     29.318222      0.401483
  H      -6.210766     29.654579      0.864812
  H      -5.193187     29.850473     -0.570139
  H      -3.717897     26.813565      3.024443
  H      -5.257806     27.672732      3.196618
  C      -2.684666     29.290107      3.213077
  C      -3.488525     30.980705      1.174077
  C      -2.489076     31.419574      2.066607
  C      -2.078768     30.556029      3.116662
  H      -2.351575     28.604775      4.010635
  H      -3.809453     31.661271      0.369071
  C      -1.886875     32.764109      1.847121
  C      -1.224714     33.051745      0.633548
  C      -0.644659     34.305854      0.409237
  C      -1.975515     33.788446      2.814858
  C      -1.394828     35.041932      2.589868
  C      -0.717508     35.317888      1.385935
  H      -1.148225     32.264297     -0.131751
  H      -0.115698     34.502465     -0.536856
  H      -2.523108     33.600202      3.750948
  H      -1.470440     35.825154      3.360764
  C      -0.045896     36.640338      1.169832
  Cl      1.684456     36.604473      1.746617
  H      -0.542613     37.452673      1.733006
  H      -0.007868     36.914167      0.098651
  C      -0.974821     30.911289      4.100302
  C      -0.019036     18.694553      0.357976
  C      -0.295124     19.095422      3.213136
  C       0.205485     20.229597      2.348091
  H       0.574390     18.469211      3.528909
  H      -0.739656     19.485019      4.151582
  C       0.316238     20.042178      0.954691
  H      -0.289635     18.795106     -0.713008
  H       0.907016     18.073475      0.377331
  C       0.795250     21.099873      0.163401
  C       0.579185     21.465192      2.899752
  C       1.080098     22.519277      2.112410
  C       1.201731     22.330694      0.709130
  H       0.888521     20.946161     -0.924746
  H       0.475304     21.624579      3.985470
  C       1.490368     23.790597      2.768662
  C       2.498276     23.809419      3.756669
  C       0.886519     25.017228      2.425051
  C       1.279238     26.216196      3.033907
  C       2.286880     26.235319      4.018973
  C       2.890005     25.008588      4.365732
  H       3.688403     24.994001      5.125504
  H       3.001021     22.868542      4.028402
  H       0.082734     25.029048      1.672602
  H       0.785926     27.155556      2.743956
  C       2.687426     27.520463      4.737026
  C       0.954154     29.268987      4.328296
  C       1.152571     31.024350      2.696897
  C       0.394276     30.392443      3.701402
  H      -1.237719     30.492811      5.092647
  H      -0.910972     32.008595      4.223165
  C       2.242582     28.780039      4.030616
  C       3.032627     29.471396      3.069977
  C       2.439070     30.571181      2.401716
  H       0.740956     31.890911      2.158335
  H       3.020959     31.093629      1.627738
  H       0.370320     28.747970      5.105881
  H       3.783421     27.521357      4.905877
  H       2.225491     27.501748      5.748922
  C       4.479641     29.208691      2.833965
  C       5.077024     27.929158      2.750693
  C       6.470096     27.795070      2.630374
  C       7.310965     28.919336      2.549968
  C       6.718411     30.201210      2.559672
  C       5.335242     30.328785      2.724370
  H       4.454328     27.023403      2.773057
  H       6.909895     26.784573      2.598629
  H       4.906506     31.339324      2.807128
  C       5.875208     20.258465     -0.124175
  C       5.360199     21.644117      0.214610
  H       5.906562     20.142811     -1.228991
  H       6.922367     20.132401      0.218907
  C       6.092203     22.607065      0.958473
  C       5.497180     23.867616      1.194126
  C       4.185461     24.150459      0.792089
  C       4.058328     21.961816     -0.204045
  C       3.433314     23.178091      0.106291
  H       3.484795     21.192048     -0.744878
  H       6.062959     24.622138      1.762658
  H       3.728804     25.119691      1.046299
  C       1.945360     23.330246     -0.167849
  H       1.725567     23.110950     -1.232801
  H       1.632198     24.372478      0.025712
  C       7.442578     22.313595      1.508074
  C       7.660683     21.184989      2.331855
  C       8.932961     20.887048      2.827878
  C      10.038743     21.707103      2.523958
  C       9.819826     22.847664      1.729655
  C       8.543496     23.149476      1.231092
  H       6.812496     20.534895      2.595623
  H       9.075231     19.997989      3.461487
  H      10.669496     23.502218      1.475759
  H       8.398778     24.031976      0.588465
  C      11.410623     21.374898      3.081727
  C      11.511102     21.730882      4.556649
  H      12.182633     21.937160      2.518294
  H      11.614025     20.299043      2.926516
  C      11.682130     23.084235      4.901978
  C      11.698879     23.520368      6.230949
  C      11.539197     22.577798      7.271019
  C      11.364149     21.228825      6.940543
  C      11.351218     20.782995      5.600246
  C      11.153399     19.330160      5.339460
  H      11.258525     20.482832      7.744573
  H      11.798900     23.826100      4.094630
  C      12.122425     18.557142      4.662562
  C      11.914494     17.194109      4.423903
  C      10.736296     16.556208      4.860235
  C       9.774840     17.319630      5.549438
  C       9.982799     18.683231      5.790981
  H      13.059454     19.033582      4.336006
  H      12.679944     16.610132      3.888688
  H       8.845074     16.838681      5.892536
  H       9.218312     19.271778      6.321079
  C      10.492074     15.108740      4.555214
  Cl      9.706992     14.901598      2.922732
  H       9.808642     14.642359      5.289456
  H      11.434166     14.529686      4.520260
  C      11.597310     23.077730      8.699782
  C      12.657364     24.145445      8.860024
  H      11.759503     22.242632      9.409916
  H      10.604501     23.517679      8.963392
  C      12.819832     25.079692      7.812104
  C      11.908773     24.966807      6.611027
  H      12.297199     25.556224      5.756796
  H      10.919663     25.415458      6.872096
  C      13.498631     24.235967      9.981406
  C      14.490148     25.222319     10.060908
  C      14.684267     26.143829      9.007840
  C      13.826078     26.047435      7.889687
  H      13.962597     26.726703      7.034858
  H      15.118558     25.279310     10.962004
  H      13.379848     23.517151     10.807975
  C      15.764032     27.159751      9.032216
  C      16.932448     27.001095      9.806663
  C      17.945831     27.964685      9.762163
  C      15.665597     28.317765      8.229579
  C      16.683006     29.275162      8.145370
  C      17.852234     29.098534      8.932745
  H      18.851843     27.825927     10.373667
  H      17.068037     26.104632     10.429142
  H      14.750643     28.488040      7.647468
  C      18.970963     30.093307      8.908809
  Cl     18.563318     31.616404      9.842673
  H      19.218139     30.435611      7.885965
  H      19.884921     29.686565      9.379180
  C      16.549640     30.474690      7.216334
  C      15.225031     30.579861      6.500198
  H      17.371210     30.427009      6.466327
  H      16.737396     31.398242      7.803486
  C      14.970644     29.865649      5.311044
  C      13.724412     29.934769      4.673826
  C      12.682014     30.731301      5.198586
  C      12.936977     31.434843      6.397675
  C      14.180431     31.357773      7.034942
  H      15.771226     29.250479      4.869195
  C      11.382026     30.881588      4.498510
  C      10.744289     29.802328      3.844893
  C      10.749967     32.144062      4.467049
  C       9.521816     29.968383      3.171116
  C       8.913699     31.244720      3.143991
  C       9.533777     32.318600      3.801528
  H      11.202257     28.800554      3.886362
  H      11.234292     33.005231      4.950963
  H       9.058156     33.312163      3.782029
  C       7.610067     31.409808      2.402854
  H       7.087162     32.333707      2.721011
  H       7.831293     31.544286      1.315796
  C       8.821559     28.826888      2.453745
  H       9.111251     28.865355      1.375167
  H       9.180991     27.846002      2.825570
  H      14.346246     31.910407      7.973394
  H      12.136421     32.041548      6.847249
  H      13.567290     29.393333      3.728091
324
Coordinates from ORCA-job input E -9763.436501927481
  C      -3.020749      8.970520      2.129052
  C      -4.326316      9.161495      2.628241
  C      -5.097191      8.076833      3.060783
  C      -4.585541      6.765882      3.010276
  C      -3.270479      6.574323      2.540786
  C      -2.500247      7.658971      2.106033
  H      -1.471140      7.493109      1.752169
  H      -2.843635      5.558896      2.524868
  H      -4.748711     10.177790      2.645910
  H      -6.119336      8.246591      3.434366
  C      -5.401895      5.605680      3.495370
  Cl     -5.100941      5.271776      5.262801
  H      -5.150374      4.671049      2.959488
  H      -6.486958      5.797230      3.397024
  C      -1.164114     11.396974     -0.137944
  C      -0.911035     12.471503      0.732244
  C      -1.832432     10.230847      0.271227
  C      -1.297660     12.365664      2.083471
  C      -2.239107     10.134371      1.629732
  H      -0.859724     11.489588     -1.193976
  C      -1.951092     11.196332      2.507729
  H      -2.253744     11.101143      3.563288
  C      -2.272154      9.212133     -0.772334
  C      -3.759898      9.387083     -1.032253
  H      -2.069939      8.173242     -0.450727
  H      -1.695327      9.383261     -1.704594
  C      -4.711507      8.413534     -0.678536
  C      -6.077269      8.709025     -0.751690
  C      -6.541572      9.987628     -1.137694
  C      -5.590075     10.957408     -1.548625
  C      -4.226608     10.620403     -1.509718
  H      -4.382954      7.435608     -0.293976
  H      -6.813331      7.954800     -0.433547
  H      -3.491346     11.392350     -1.788058
  C      -7.999855     10.269428     -1.059201
  C      -8.931042      9.425081     -1.701762
  C     -10.306978      9.662460     -1.602206
  C     -10.798516     10.752125     -0.857972
  C      -8.498062     11.354754     -0.302230
  C      -9.873660     11.590278     -0.204065
  H      -8.561444      8.579196     -2.301379
  H     -11.015670      8.991438     -2.113164
  H      -7.794306     12.009528      0.234797
  H     -10.240719     12.433217      0.402618
  C     -12.272932     10.988531     -0.725908
  Cl    -12.952610     10.156010      0.748613
  H     -12.833070     10.588501     -1.591866
  H     -12.510305     12.062563     -0.607522
  C      -1.043998     13.512316      3.036477
  C       0.110759     14.398671      2.636367
  H      -0.901126     13.131370      4.068800
  H      -1.957744     14.153749      3.083609
  C      -0.303800     13.756573      0.226031
  C       0.464845     14.523188      1.276284
  H      -1.138191     14.403239     -0.137349
  H       0.334104     13.566281     -0.661359
  C       0.823533     15.146870      3.591194
  C       1.847479     16.021234      3.213422
  C       1.496899     15.399203      0.907700
  C       2.199474     16.174909      1.853387
  H       1.735702     15.506740     -0.162121
  H       0.568132     15.039051      4.657659
  H       2.402044     16.574479      3.986182
  C       3.213726     17.163586      1.413402
  C       3.970550     16.971830      0.234673
  C       4.831139     17.965766     -0.244892
  C       4.979699     19.193338      0.430398
  C       4.261368     19.368230      1.630810
  H       3.881167     16.024715     -0.318329
  H       5.391244     17.791489     -1.177884
  C       3.399541     18.377248      2.111989
  H       4.330573     20.325850      2.168306
  H       2.814778     18.580107      3.021379
  C      -5.944105     12.369083     -1.973742
  C      -5.261992     13.434502     -1.127146
  H      -7.043184     12.518293     -1.963894
  H      -5.635790     12.517819     -3.031549
  C      -4.827588     13.165428      0.186298
  C      -4.126164     14.120164      0.929204
  C      -5.002080     14.717838     -1.648555
  C      -4.313243     15.681544     -0.900283
  C      -3.842613     15.399224      0.403135
  H      -4.987575     12.166445      0.617824
  H      -3.743549     13.841553      1.920820
  H      -5.332280     14.962810     -2.671161
  H      -4.125144     16.675767     -1.334799
  C      -3.020193     16.383836      1.156044
  C      -1.982767     17.059116      0.475390
  C      -1.126408     17.969317      1.109784
  C      -3.230020     16.681591      2.530704
  C      -2.337349     17.561849      3.168145
  C      -1.281534     18.192123      2.494793
  H      -1.828429     16.845537     -0.594585
  H      -2.503749     17.798956      4.232353
  C      -4.492737     16.287078      3.285669
  C      -5.485953     17.433055      3.201950
  H      -4.252518     16.077741      4.347556
  H      -4.947999     15.371863      2.864484
  C      -5.844355     18.197602      4.322910
  C      -6.651164     19.335447      4.173432
  C      -7.120342     19.744686      2.910792
  C      -6.776782     18.967809      1.768122
  C      -5.977748     17.829331      1.943705
  H      -5.469792     17.918053      5.320649
  H      -6.918042     19.936681      5.056468
  H      -5.683534     17.256037      1.051017
  C      -7.863675     21.030431      2.788275
  C      -9.192987     21.096526      2.330628
  C      -9.825536     22.334959      2.144911
  C      -9.149521     23.538475      2.415773
  C      -7.828224     23.473288      2.902322
  C      -7.201309     22.240824      3.093939
  H      -9.734673     20.165678      2.102920
  H      -6.156744     22.202245      3.437204
  H      -7.277036     24.405725      3.099652
  H     -10.862558     22.366845      1.773728
  C      -9.813718     24.865637      2.185066
  Cl     -8.914029     25.894355      0.975597
  H      -9.852964     25.474826      3.109575
  H     -10.842708     24.744855      1.797566
  C      -7.132620     19.404588      0.356516
  C      -6.655430     20.812544      0.053056
  H      -8.228797     19.356777      0.189158
  H      -6.681942     18.678156     -0.353291
  C      -5.355665     21.228078      0.407257
  C      -4.979252     22.571922      0.298572
  C      -5.889349     23.542631     -0.175333
  C      -7.529998     21.764216     -0.499423
  C      -7.157270     23.106253     -0.615413
  H      -4.643662     20.494148      0.818454
  H      -3.968816     22.881382      0.608602
  H      -8.549451     21.458427     -0.782756
  H      -7.892231     23.850414     -0.954932
  C      -5.600183     24.993940     -0.116243
  C      -5.020100     25.553412      1.039997
  C      -4.885487     26.941167      1.201043
  C      -5.997445     25.869402     -1.149642
  C      -5.836649     27.251581     -1.011195
  C      -5.302608     27.805796      0.166055
  H      -4.722103     24.886150      1.864882
  H      -6.429183     25.455561     -2.073283
  H      -6.146500     27.921531     -1.829475
  C      -4.370078     27.529201      2.496175
  C      -3.680236     28.862238      2.321234
  C      -4.086210     29.720599      1.276992
  C      -5.216084     29.301114      0.366027
  H      -6.177404     29.649138      0.817376
  H      -5.146208     29.822801     -0.610537
  H      -3.702715     26.810087      3.013960
  H      -5.240728     27.672782      3.181792
  C      -2.670703     29.288290      3.197414
  C      -3.456430     30.965501      1.140581
  C      -2.462836     31.408903      2.037142
  C      -2.062424     30.552562      3.096914
  H      -2.344464     28.608050      4.002132
  H      -3.769485     31.640180      0.327355
  C      -1.857792     32.751493      1.813641
  C      -1.186491     33.030970      0.603230
  C      -0.601665     34.282380      0.376578
  C      -1.949967     33.780634      2.775878
  C      -1.364182     35.031323      2.548672
  C      -0.677303     35.298962      1.348329
  H      -1.107080     32.239440     -0.157505
  H      -0.064632     34.472581     -0.566245
  H      -2.504167     33.598131      3.709186
  H      -1.441068     35.818047      3.315843
  C      -0.000468     36.618345      1.130232
  Cl      1.725896     36.578730      1.719186
  H      -0.497797     37.435058      1.686453
  H       0.046089     36.887083      0.058129
  C      -0.964375     30.913611      4.084991
  C      -0.043789     18.703846      0.352261
  C      -0.310297     19.098367      3.210593
  C       0.186250     20.234423      2.345456
  H       0.561236     18.474239      3.524811
  H      -0.754311     19.486539      4.149882
  C       0.292881     20.050316      0.951351
  H      -0.321364     18.808036     -0.716630
  H       0.883557     18.084454      0.363035
  C       0.766373     21.111213      0.160585
  C       0.560829     21.469110      2.898730
  C       1.057845     22.525286      2.111989
  C       1.172204     22.341750      0.707542
  H       0.853661     20.960976     -0.928529
  H       0.462333     21.625233      3.985409
  C       1.471968     23.794625      2.770305
  C       2.489359     23.809585      3.748437
  C       0.864106     25.022155      2.437588
  C       1.262984     26.218864      3.046989
  C       2.279056     26.234063      4.023600
  C       2.886085     25.006256      4.359172
  H       3.690732     24.988744      5.112242
  H       2.994256     22.867568      4.011830
  H       0.053013     25.037004      1.692818
  H       0.765936     27.158975      2.765952
  C       2.686668     27.516433      4.743406
  C       0.961311     29.269968      4.326665
  C       1.176351     31.030156      2.702662
  C       0.407759     30.394873      3.697087
  H      -1.232838     30.499434      5.077684
  H      -0.902884     32.011657      4.202689
  C       2.250720     28.778835      4.036863
  C       3.050261     29.472311      3.085775
  C       2.465304     30.577210      2.418339
  H       0.772834     31.902331      2.167075
  H       3.054512     31.100581      1.650590
  H       0.371985     28.750344      5.101000
  H       3.782261     27.509986      4.914231
  H       2.222291     27.499711      5.754172
  C       4.499511     29.209795      2.861682
  C       5.096673     27.930526      2.773724
  C       6.490157     27.796565      2.658227
  C       7.332073     28.921829      2.589390
  C       6.739692     30.203936      2.603756
  C       5.355640     30.330409      2.762350
  H       4.472604     27.025409      2.783023
  H       6.930256     26.785697      2.623724
  H       4.925649     31.340376      2.845509
  C       5.850381     20.300291     -0.141520
  C       5.331948     21.685079      0.195506
  H       5.882315     20.183149     -1.246141
  H       6.897864     20.177502      0.201816
  C       6.060704     22.650529      0.939679
  C       5.459762     23.908289      1.178492
  C       4.145417     24.184311      0.779698
  C       4.027327     21.996104     -0.218582
  C       3.396248     23.207597      0.096352
  H       3.455407     21.222952     -0.756349
  H       6.024195     24.665866      1.745695
  H       3.683887     25.150004      1.038000
  C       1.905761     23.348207     -0.170049
  H       1.682981     23.129410     -1.234540
  H       1.584978     24.387598      0.026795
  C       7.410849     22.359305      1.490836
  C       7.631279     21.226072      2.307455
  C       8.903953     20.927419      2.801869
  C      10.007592     21.752622      2.505164
  C       9.786698     22.897030      1.716782
  C       8.510257     23.198778      1.218649
  H       6.785538     20.569370      2.562569
  H       9.046853     20.035778      3.431685
  H      10.634911     23.555379      1.467948
  H       8.365145     24.081851      0.576917
  C      11.380767     21.418878      3.058505
  C      11.485039     21.763705      4.535836
  H      12.150133     21.987541      2.497885
  H      11.586073     20.344808      2.894292
  C      11.660680     23.113994      4.890473
  C      11.680949     23.540946      6.222429
  C      11.516577     22.592198      7.255958
  C      11.334194     21.246511      6.916293
  C      11.320046     20.809565      5.573098
  C      11.114173     19.359485      5.303555
  H      11.226093     20.495538      7.715303
  H      11.778908     23.861108      4.088234
  C      12.078356     18.585208      4.621161
  C      11.863178     17.224581      4.375380
  C      10.682269     16.590340      4.809629
  C       9.725350     17.354982      5.503813
  C       9.940517     18.716123      5.752391
  H      13.017755     19.058362      4.296774
  H      12.625210     16.639478      3.836563
  H       8.793408     16.876958      5.845022
  H       9.179004     19.306055      6.285154
  C      10.430018     15.145944      4.497025
  Cl      9.636556     14.952622      2.866703
  H       9.747445     14.678232      5.231196
  H      11.369104     14.562568      4.454196
  C      11.579631     23.081366      8.688231
  C      12.647970     24.140101      8.854059
  H      11.737152     22.240042      9.391970
  H      10.590415     23.526499      8.956436
  C      12.815647     25.080230      7.812352
  C      11.901415     24.983310      6.612171
  H      12.293296     25.575736      5.761641
  H      10.916169     25.437504      6.878082
  C      13.492413     24.215624      9.974198
  C      14.492549     25.192903     10.058329
  C      14.692482     26.119181      9.010613
  C      13.830129     26.039026      7.894432
  H      13.971956     26.721887      7.043320
  H      15.124676     25.237590     10.957501
  H      13.368110     23.493167     10.796760
  C      15.779870     27.126928      9.039721
  C      16.950396     26.953145      9.807754
  C      17.970720     27.909598      9.766168
  C      15.686777     28.291328      8.245870
  C      16.710995     29.241486      8.164291
  C      17.881715     29.050608      8.946035
  H      18.878084     27.759839     10.373023
  H      17.082110     26.050535     10.422088
  H      14.771076     28.471174      7.667920
  C      19.007531     30.037368      8.924687
  Cl     18.614047     31.556321      9.871533
  H      19.253134     30.385799      7.903557
  H      19.920316     29.620829      9.388666
  C      16.581330     30.449536      7.245812
  C      15.255837     30.563769      6.532578
  H      17.401536     30.405008      6.494320
  H      16.773110     31.367280      7.840850
  C      14.999245     29.860048      5.337779
  C      13.751220     29.933288      4.704478
  C      12.709685     30.724381      5.238911
  C      12.966530     31.416994      6.443912
  C      14.211813     31.335693      7.077184
  H      15.798940     29.248466      4.889437
  C      11.406560     30.876684      4.544561
  C      10.768219     29.800401      3.886860
  C      10.774414     32.139322      4.520240
  C       9.543997     29.968976      3.216641
  C       8.935597     31.245470      3.196900
  C       9.556758     32.316531      3.858130
  H      11.228482     28.799351      3.920392
  H      11.261159     32.998652      5.004927
  H       9.080217     33.309740      3.844934
  C       7.631230     31.414358      2.457590
  H       7.107741     32.335255      2.783389
  H       7.852270     31.558321      1.371713
  C       8.843021     28.829748      2.495772
  H       9.134230     28.870445      1.417657
  H       9.201376     27.847679      2.865554
  H      14.379058     31.878977      8.020810
  H      12.166459     32.019305      6.900161
  H      13.592368     29.401437      3.753635
324
Coordinates from ORCA-job input E -9763.436577991981
  C      -2.980808      8.964671      2.144469
  C      -4.285459      9.149631      2.648200
  C      -5.049357      8.061660      3.084728
  C      -4.531248      6.753309      3.034173
  C      -3.217281      6.567695      2.559155
  C      -2.454106      7.655647      2.120345
  H      -1.425893      7.494228      1.761911
  H      -2.785221      5.554524      2.543245
  H      -4.713216     10.163642      2.665347
  H      -6.070375      8.227038      3.463219
  C      -5.340115      5.589497      3.522999
  Cl     -5.032527      5.259845      5.290082
  H      -5.084987      4.655461      2.987863
  H      -6.426464      5.774968      3.427576
  C      -1.144984     11.399708     -0.130215
  C      -0.894257     12.475974      0.738402
  C      -1.805580     10.230294      0.281788
  C      -1.276216     12.369129      2.090875
  C      -2.206568     10.132091      1.641770
  H      -0.843038     11.492727     -1.186876
  C      -1.921816     11.196419      2.518152
  H      -2.222142     11.101120      3.574316
  C      -2.245441      9.209818     -0.759882
  C      -3.735020      9.378565     -1.013431
  H      -2.037758      8.171897     -0.438700
  H      -1.673444      9.383416     -1.694616
  C      -4.681174      8.401486     -0.654684
  C      -6.048428      8.690899     -0.723796
  C      -6.519584      9.966640     -1.110765
  C      -5.573798     10.939669     -1.527151
  C      -4.208756     10.608428     -1.492874
  H      -4.346963      7.425286     -0.270754
  H      -6.780172      7.933871     -0.402494
  H      -3.477930     11.381751     -1.778730
  C      -7.978719     10.242757     -1.027942
  C      -8.908154      9.395911     -1.669558
  C     -10.284740      9.627804     -1.566257
  C     -10.778636     10.714407     -0.819157
  C      -8.479252     11.323986     -0.266672
  C      -9.855470     11.553922     -0.164549
  H      -8.536752      8.551956     -2.270707
  H     -10.992024      8.956043     -2.078097
  H      -7.776808     11.979089      0.271622
  H     -10.224304     12.394396      0.444399
  C     -12.253519     10.944526     -0.682625
  Cl    -12.926345     10.107212      0.792391
  H     -12.814562     10.543507     -1.547484
  H     -12.495009     12.017336     -0.561814
  C      -1.028153     13.518877      3.041904
  C       0.118845     14.413065      2.637314
  H      -0.878554     13.139441      4.073887
  H      -1.946705     14.153180      3.092581
  C      -0.297978     13.764846      0.228993
  C       0.467401     14.539056      1.276012
  H      -1.137664     14.405322     -0.133088
  H       0.339292     13.577935     -0.659548
  C       0.828978     15.167661      3.589188
  C       1.846565     16.047765      3.207388
  C       1.493878     15.419842      0.903570
  C       2.192619     16.202759      1.845900
  H       1.724697     15.531912     -0.167504
  H       0.578202     15.058550      4.656575
  H       2.397869     16.607744      3.977546
  C       3.204006     17.192425      1.401635
  C       3.958466     16.999469      0.221798
  C       4.815826     17.993949     -0.262116
  C       4.963220     19.223447      0.409639
  C       4.247693     19.399624      1.611649
  H       3.870432     16.050585     -0.328325
  H       5.373651     17.818788     -1.196261
  C       3.389696     18.407742      2.097583
  H       4.316765     20.358293      2.147233
  H       2.806415     18.611620      3.007468
  C      -5.935354     12.347750     -1.957670
  C      -5.262478     13.419798     -1.112055
  H      -7.035217     12.490483     -1.951778
  H      -5.624446     12.495456     -3.014863
  C      -4.827268     13.156742      0.202291
  C      -4.131538     14.117564      0.942461
  C      -5.009547     14.703030     -1.636953
  C      -4.326585     15.672883     -0.891242
  C      -3.856388     15.397464      0.413671
  H      -4.978635     12.157283      0.635517
  H      -3.750130     13.845867      1.936402
  H      -5.338623     14.942187     -2.661250
  H      -4.145642     16.667348     -1.328239
  C      -3.034545     16.385387      1.162755
  C      -2.004515     17.066109      0.476686
  C      -1.150356     17.981873      1.106038
  C      -3.241301     16.684831      2.537709
  C      -2.349020     17.568873      3.170425
  C      -1.297833     18.201908      2.492247
  H      -1.860870     16.859979     -0.596302
  H      -2.509617     17.804048      4.235924
  C      -4.503023     16.293739      3.296068
  C      -5.495264     17.440734      3.212110
  H      -4.260884     16.086011      4.357793
  H      -4.960658     15.378239      2.877827
  C      -5.856132     18.204130      4.333137
  C      -6.667116     19.339092      4.183652
  C      -7.135858     19.747558      2.920706
  C      -6.795370     18.968007      1.779133
  C      -5.993962     17.831388      1.954839
  H      -5.487768     17.920870      5.332095
  H      -6.931348     19.942690      5.065826
  H      -5.708270     17.251711      1.063853
  C      -7.881750     21.031427      2.794619
  C      -9.208867     21.093579      2.329475
  C      -9.843756     22.330104      2.139486
  C      -9.172909     23.535632      2.415446
  C      -7.856096     23.474156      2.913474
  C      -7.225534     22.243585      3.105632
  H      -9.746987     20.161201      2.099806
  H      -6.185680     22.207886      3.463095
  H      -7.307876     24.408370      3.110011
  H     -10.877863     22.358968      1.760178
  C      -9.842330     24.860405      2.185259
  Cl     -8.934042     25.903827      0.996150
  H      -9.899620     25.462373      3.113610
  H     -10.865265     24.734906      1.783435
  C      -7.154387     19.402784      0.368292
  C      -6.676053     20.809591      0.061976
  H      -8.250936     19.356016      0.203419
  H      -6.705852     18.675215     -0.341757
  C      -5.374896     21.223809      0.412799
  C      -4.996032     22.566514      0.300103
  C      -5.904859     23.538145     -0.174397
  C      -7.551057     21.762324     -0.487454
  C      -7.176018     23.103528     -0.606717
  H      -4.663064     20.489673      0.823736
  H      -3.983098     22.873609      0.604050
  H      -8.572821     21.459099     -0.764947
  H      -7.910549     23.848040     -0.946220
  C      -5.610651     24.988761     -0.121688
  C      -5.020953     25.551514      1.028209
  C      -4.874192     26.939388      1.179343
  C      -6.004499     25.860331     -1.159634
  C      -5.833073     27.241922     -1.030737
  C      -5.290150     27.800069      0.140566
  H      -4.719281     24.887129      1.854075
  H      -6.440784     25.443635     -2.079802
  H      -6.140403     27.908759     -1.852459
  C      -4.350034     27.530802      2.469502
  C      -3.660015     28.862909      2.288721
  C      -4.062335     29.716099      1.239037
  C      -5.192058     29.296105      0.328308
  H      -6.151816     29.655993      0.773497
  H      -5.115077     29.808729     -0.652508
  H      -3.679802     26.812077      2.984391
  H      -5.215643     27.675894      3.161064
  C      -2.655264     29.294700      3.167876
  C      -3.432837     30.960988      1.099537
  C      -2.442031     31.408522      1.996762
  C      -2.047422     30.558731      3.064000
  H      -2.334996     28.620197      3.979774
  H      -3.739135     31.628645      0.278030
  C      -1.838764     32.751421      1.771498
  C      -1.164626     33.028684      0.562254
  C      -0.579483     34.279724      0.334929
  C      -1.933983     33.782209      2.731630
  C      -1.347754     35.032526      2.503798
  C      -0.657465     35.297789      1.304916
  H      -1.083659     32.235937     -0.196961
  H      -0.039992     34.468497     -0.606723
  H      -2.491708     33.601361      3.663099
  H      -1.426057     35.820455      3.269522
  C       0.021653     36.615908      1.087102
  Cl      1.746102     36.573280      1.681949
  H      -0.475697     37.434246      1.640810
  H       0.072542     36.883274      0.014910
  C      -0.955918     30.927286      4.056629
  C      -0.073673     18.718938      0.342763
  C      -0.328167     19.113097      3.203871
  C       0.164687     20.248723      2.335834
  H       0.545223     18.492241      3.518983
  H      -0.772202     19.502530      4.142609
  C       0.265422     20.065053      0.941297
  H      -0.359398     18.824815     -0.723824
  H       0.854524     18.100788      0.344729
  C       0.738051     21.125330      0.149070
  C       0.540955     21.483747      2.887764
  C       1.036013     22.539475      2.099262
  C       1.146253     22.355724      0.694388
  H       0.825239     20.973612     -0.939816
  H       0.444921     21.640388      3.974547
  C       1.455317     23.807944      2.756712
  C       2.479672     23.819620      3.727450
  C       0.843356     25.036057      2.434094
  C       1.246411     26.230725      3.044791
  C       2.270975     26.243122      4.012686
  C       2.880680     25.014310      4.339390
  H       3.691541     24.994611      5.085644
  H       2.984290     22.876159      3.986089
  H       0.021968     25.052666      1.700790
  H       0.747535     27.171590      2.769557
  C       2.682459     27.522387      4.736475
  C       0.965034     29.281233      4.310770
  C       1.199663     31.049168      2.697735
  C       0.419692     30.409728      3.680573
  H      -1.229870     30.517640      5.049684
  H      -0.897790     32.026098      4.168744
  C       2.256024     28.788517      4.030882
  C       3.066047     29.484901      3.091186
  C       2.490333     30.594812      2.423883
  H       0.803988     31.925617      2.163327
  H       3.088770     31.121073      1.665405
  H       0.367782     28.760375      5.078102
  H       3.777084     27.509544      4.912124
  H       2.213249     27.505829      5.744991
  C       4.516494     29.219422      2.877818
  C       5.110555     27.938918      2.788664
  C       6.504468     27.801436      2.683478
  C       7.350294     28.924758      2.625863
  C       6.761716     30.208550      2.644321
  C       5.376786     30.338028      2.793412
  H       4.483482     27.035769      2.793440
  H       6.942075     26.789626      2.644189
  H       4.948893     31.348483      2.880601
  C       5.828247     20.331400     -0.168617
  C       5.307337     21.715340      0.167615
  H       5.855770     20.211661     -1.273049
  H       6.877582     20.212347      0.170363
  C       6.034208     22.682745      0.910988
  C       5.429968     23.938774      1.150894
  C       4.113495     24.210036      0.756058
  C       4.000609     22.021909     -0.242918
  C       3.365515     23.230109      0.076117
  H       3.428872     21.245926     -0.776757
  H       5.993922     24.697774      1.716764
  H       3.649077     25.173402      1.017613
  C       1.873802     23.363903     -0.186119
  H       1.649140     23.142733     -1.249762
  H       1.548520     24.402033      0.010091
  C       7.384792     22.394228      1.461763
  C       7.609122     21.256634      2.271065
  C       8.882360     20.960142      2.765183
  C       9.982443     21.792490      2.476263
  C       9.757267     22.942106      1.696620
  C       8.480594     23.241022      1.197742
  H       6.766319     20.593878      2.520044
  H       9.028017     20.064144      3.388067
  H      10.602829     23.605966      1.453611
  H       8.332369     24.128398      0.562749
  C      11.356466     21.460881      3.027900
  C      11.459963     21.791086      4.508564
  H      12.122834     22.039377      2.473288
  H      11.567506     20.389707      2.852708
  C      11.639706     23.137208      4.876620
  C      11.660890     23.551158      6.212748
  C      11.490743     22.593254      7.236693
  C      11.303102     21.251671      6.883695
  C      11.289582     20.827581      5.536344
  C      11.080160     19.380660      5.253376
  H      11.190296     20.493605      7.675244
  H      11.763942     23.891383      4.081962
  C      12.042833     18.609884      4.564920
  C      11.824009     17.252228      4.306326
  C      10.641046     16.617290      4.733791
  C       9.685290     17.378403      5.433486
  C       9.903805     18.736634      5.694278
  H      12.983497     19.083460      4.245005
  H      12.585372     16.669695      3.763872
  H       8.751406     16.900036      5.768696
  H       9.143104     19.324020      6.230902
  C      10.384823     15.176639      4.407825
  Cl      9.585347     15.001377      2.778290
  H       9.703539     14.703002      5.139339
  H      11.322380     14.591623      4.355908
  C      11.554863     23.067959      8.673823
  C      12.629846     24.118500      8.850360
  H      11.707100     22.218867      9.369237
  H      10.568124     23.516232      8.945617
  C      12.803732     25.067334      7.817751
  C      11.888407     24.988530      6.616991
  H      12.283813     25.587422      5.772673
  H      10.905830     25.445481      6.887790
  C      13.474942     24.177240      9.971045
  C      14.481880     25.146783     10.064607
  C      14.688241     26.081264      9.025471
  C      13.824972     26.018197      7.908848
  H      13.972376     26.707554      7.063994
  H      15.114829     25.178385     10.963699
  H      13.345078     23.448186     10.786851
  C      15.782562     27.081518      9.063470
  C      16.952746     26.893423      9.828704
  C      17.979238     27.843634      9.793698
  C      15.696275     28.252849      8.279262
  C      16.726917     29.196346      8.203432
  C      17.896825     28.991753      8.982843
  H      18.886184     27.683271     10.398403
  H      17.079045     25.984912     10.435336
  H      14.781226     28.442271      7.703547
  C      19.029371     29.970824      8.967323
  Cl     18.647181     31.485185      9.926214
  H      19.276201     30.325515      7.948679
  H      19.939780     29.544740      9.427194
  C      16.603385     30.411904      7.294035
  C      15.278671     30.534271      6.580794
  H      17.424129     30.369822      6.543145
  H      16.797950     31.324318      7.896336
  C      15.021265     29.837373      5.382271
  C      13.773220     29.915325      4.749593
  C      12.732820     30.704797      5.288542
  C      12.990852     31.391745      6.496468
  C      14.236060     31.305400      7.129210
  H      15.820234     29.227176      4.930854
  C      11.429897     30.862343      4.594698
  C      10.788446     29.789776      3.934146
  C      10.800820     32.126598      4.575486
  C       9.564368     29.963636      3.264780
  C       8.959678     31.241944      3.249166
  C       9.583478     32.309029      3.914381
  H      11.245980     28.787362      3.965274
  H      11.289468     32.982451      5.064292
  H       9.109488     33.303456      3.904295
  C       7.656409     31.417910      2.509622
  H       7.134230     32.337277      2.841747
  H       7.879384     31.570234      1.425296
  C       8.861492     28.828044      2.540000
  H       9.157958     28.868005      1.463300
  H       9.214432     27.844311      2.910590
  H      14.404394     31.844232      8.075138
  H      12.191317     31.992452      6.955662
  H      13.613044     29.388245      3.796379
324
Coordinates from ORCA-job input E -9763.436662750968
  C      -2.950950      8.974176      2.175350
  C      -4.254188      9.155447      2.683993
  C      -5.011201      8.066056      3.128859
  C      -4.487418      6.759869      3.081765
  C      -3.174945      6.578036      2.601124
  C      -2.418649      7.667426      2.154103
  H      -1.391388      7.508851      1.791774
  H      -2.738445      5.566769      2.587511
  H      -4.686432     10.167571      2.698465
  H      -6.031272      8.228633      3.511039
  C      -5.288670      5.594504      3.579292
  Cl     -4.972856      5.275417      5.346886
  H      -5.030711      4.659077      3.048002
  H      -6.376306      5.773876      3.487207
  C      -1.135255     11.409066     -0.115180
  C      -0.885823     12.489281      0.748805
  C      -1.789059     10.238309      0.303354
  C      -1.261208     12.384982      2.103329
  C      -2.184039     10.142933      1.665191
  H      -0.839030     11.500503     -1.173580
  C      -1.899434     11.210779      2.537227
  H      -2.194784     11.117560      3.594940
  C      -2.226427      9.211090     -0.732708
  C      -3.717200      9.372762     -0.983822
  H      -2.014159      8.175689     -0.406676
  H      -1.657097      9.382647     -1.669396
  C      -4.658496      8.393470     -0.618368
  C      -6.027034      8.677253     -0.684775
  C      -6.504266      9.949479     -1.075590
  C      -5.563532     10.924697     -1.498214
  C      -4.197062     10.599083     -1.466211
  H      -4.319230      7.421143     -0.229181
  H      -6.754993      7.918275     -0.359625
  H      -3.470103     11.374449     -1.756242
  C      -7.964555     10.219507     -0.992625
  C      -8.890570      9.366886     -1.631435
  C     -10.268065      9.593736     -1.528983
  C     -10.766249     10.681045     -0.785782
  C      -8.469295     11.301595     -0.235396
  C      -9.846381     11.526585     -0.134233
  H      -8.515753      8.522925     -2.230410
  H     -10.972698      8.917600     -2.038657
  H      -7.769321     11.962518      0.298915
  H     -10.218561     12.367483      0.472045
  C     -12.241978     10.905473     -0.649602
  Cl    -12.911302     10.070995      0.828740
  H     -12.801717     10.498799     -1.512627
  H     -12.488009     11.977652     -0.532622
  C      -1.014384     13.538654      3.049882
  C       0.126091     14.437147      2.637145
  H      -0.857172     13.162330      4.081893
  H      -1.935881     14.168206      3.104562
  C      -0.297925     13.779165      0.232714
  C       0.468119     14.560317      1.273971
  H      -1.141657     14.415076     -0.127945
  H       0.336752     13.592193     -0.657655
  C       0.836862     15.197925      3.583566
  C       1.848091     16.081993      3.194418
  C       1.488004     15.445441      0.894196
  C       2.186461     16.235076      1.830858
  H       1.713317     15.555376     -0.178240
  H       0.590887     15.091423      4.652296
  H       2.400164     16.647030      3.960163
  C       3.189732     17.229298      1.379161
  C       3.939339     17.037914      0.196140
  C       4.789222     18.035755     -0.293710
  C       4.934013     19.266879      0.375405
  C       4.223563     19.441700      1.580754
  H       3.853857     16.087443     -0.351575
  H       5.343701     17.861542     -1.229997
  C       3.372553     18.446709      2.072155
  H       4.289460     20.402055      2.113894
  H       2.793149     18.648908      2.984818
  C      -5.931256     12.330542     -1.930452
  C      -5.258524     13.406318     -1.089375
  H      -7.031492     12.470058     -1.920741
  H      -5.624522     12.477175     -2.988977
  C      -4.812962     13.146226      0.222047
  C      -4.118549     14.111738      0.957184
  C      -5.018235     14.691351     -1.615758
  C      -4.337070     15.666054     -0.874670
  C      -3.855549     15.393560      0.426615
  H      -4.955247     12.146179      0.656961
  H      -3.727873     13.843287      1.948246
  H      -5.359220     14.929226     -2.636424
  H      -4.165394     16.661386     -1.313441
  C      -3.037061     16.387103      1.172012
  C      -2.015590     17.075702      0.481337
  C      -1.164482     17.996953      1.106951
  C      -3.239188     16.684277      2.548240
  C      -2.348745     17.572740      3.177362
  C      -1.305633     18.213975      2.494207
  H      -1.875700     16.870722     -0.592358
  H      -2.506564     17.807677      4.243294
  C      -4.495964     16.287342      3.311726
  C      -5.494083     17.429352      3.228652
  H      -4.249007     16.082683      4.372901
  H      -4.950506     15.368886      2.896619
  C      -5.856350     18.192999      4.349012
  C      -6.670786     19.325471      4.198722
  C      -7.142509     19.730507      2.935890
  C      -6.796451     18.953191      1.794404
  C      -5.993097     17.818345      1.971062
  H      -5.484042     17.913763      5.347607
  H      -6.939938     19.926665      5.081031
  H      -5.700916     17.242381      1.079945
  C      -7.888847     21.013593      2.806559
  C      -9.218015     21.073345      2.346215
  C      -9.851644     22.309193      2.147707
  C      -9.177238     23.516232      2.409534
  C      -7.859337     23.457127      2.904442
  C      -7.230117     22.227308      3.105222
  H      -9.758550     20.139846      2.127153
  H      -6.188877     22.193233      3.458681
  H      -7.307945     24.392289      3.087356
  H     -10.886716     22.336346      1.771019
  C      -9.846083     24.839710      2.169072
  Cl     -8.933761     25.877376      0.979071
  H      -9.909071     25.446396      3.094052
  H     -10.867284     24.710640      1.763941
  C      -7.155390     19.386073      0.383032
  C      -6.673514     20.791118      0.073325
  H      -8.251940     19.341280      0.217931
  H      -6.708401     18.656422     -0.325867
  C      -5.373028     21.204967      0.427803
  C      -4.991569     22.546693      0.311361
  C      -5.896518     23.517721     -0.172133
  C      -7.545205     21.743197     -0.482008
  C      -7.167371     23.083312     -0.605422
  H      -4.665206     20.472306      0.848042
  H      -3.977921     22.852536      0.614845
  H      -8.567784     21.441730     -0.758259
  H      -7.898833     23.826939     -0.953443
  C      -5.597532     24.967679     -0.129824
  C      -5.008462     25.539308      1.016087
  C      -4.853549     26.928105      1.153163
  C      -5.986698     25.831100     -1.176355
  C      -5.808608     27.212820     -1.060940
  C      -5.262486     27.780132      0.104481
  H      -4.713008     24.882028      1.849902
  H      -6.428577     25.407980     -2.090891
  H      -6.109330     27.872719     -1.890652
  C      -4.328872     27.528239      2.439127
  C      -3.640806     28.860515      2.251928
  C      -4.034341     29.703896      1.191263
  C      -5.156333     29.277608      0.274163
  H      -6.118363     29.650011      0.703773
  H      -5.065313     29.776592     -0.712501
  H      -3.656614     26.813174      2.956690
  H      -5.193290     27.674858      3.131762
  C      -2.646366     29.302819      3.137983
  C      -3.404423     30.948207      1.046239
  C      -2.423870     31.405689      1.949286
  C      -2.039678     30.566882      3.029164
  H      -2.334867     28.637022      3.960402
  H      -3.703128     31.607241      0.214980
  C      -1.816785     32.745245      1.715273
  C      -1.125371     33.006089      0.512229
  C      -0.535359     34.253373      0.277329
  C      -1.927034     33.789248      2.659373
  C      -1.335869     35.035802      2.424053
  C      -0.626647     35.284117      1.232631
  H      -1.034650     32.203494     -0.235390
  H       0.017969     34.429544     -0.658688
  H      -2.501172     33.621786      3.583284
  H      -1.425966     35.834413      3.177261
  C       0.060512     36.597047      1.009376
  Cl      1.774957     36.554937      1.633198
  H      -0.442346     37.424152      1.544692
  H       0.130366     36.850812     -0.065011
  C      -0.958855     30.947022      4.029433
  C      -0.098919     18.743269      0.337329
  C      -0.338763     19.130509      3.202602
  C       0.146224     20.268575      2.333407
  H       0.538374     18.514437      3.516323
  H      -0.782685     19.518201      4.142107
  C       0.239057     20.088696      0.937955
  H      -0.396112     18.852777     -0.725805
  H       0.832489     18.129960      0.326378
  C       0.703910     21.152314      0.145477
  C       0.523290     21.503145      2.886205
  C       1.011497     22.561700      2.097379
  C       1.112255     22.382388      0.691117
  H       0.785851     21.003099     -0.944157
  H       0.433741     21.656738      3.973940
  C       1.432888     23.828998      2.755792
  C       2.466164     23.839008      3.716922
  C       0.816864     25.057130      2.441543
  C       1.223351     26.250435      3.052804
  C       2.255353     26.261127      4.012994
  C       2.870514     25.032362      4.329472
  H       3.687174     25.011413      5.069289
  H       2.976424     22.895780      3.965477
  H      -0.010093     25.075323      1.714301
  H       0.720727     27.191216      2.784255
  C       2.668745     27.537862      4.740778
  C       0.958620     29.300392      4.301599
  C       1.214474     31.075217      2.699159
  C       0.422257     30.432412      3.670018
  H      -1.240857     30.542994      5.022524
  H      -0.906403     32.046683      4.134312
  C       2.252163     28.806985      4.034630
  C       3.073368     29.505450      3.106447
  C       2.507109     30.619233      2.437339
  H       0.825691     31.953250      2.162314
  H       3.115740     31.148399      1.689126
  H       0.351212     28.776493      5.058760
  H       3.761958     27.519498      4.923431
  H       2.192675     27.521814      5.746118
  C       4.525071     29.236482      2.904947
  C       5.115068     27.954481      2.811700
  C       6.509243     27.812597      2.717159
  C       7.359895     28.932841      2.673939
  C       6.776228     30.218623      2.697231
  C       5.390426     30.352355      2.836610
  H       4.484158     27.053990      2.806204
  H       6.943822     26.799961      2.673386
  H       4.965364     31.363668      2.927185
  C       5.791053     20.377769     -0.208712
  C       5.269115     21.759246      0.135143
  H       5.808833     20.260049     -1.313543
  H       6.843779     20.260863      0.120315
  C       5.996581     22.725405      0.879385
  C       5.390583     23.979181      1.125543
  C       4.071279     24.248310      0.739092
  C       3.959794     22.064256     -0.268465
  C       3.322622     23.269114      0.059172
  H       3.387634     21.289126     -0.803092
  H       5.955297     24.736052      1.692852
  H       3.606229     25.209787      1.006349
  C       1.828455     23.396689     -0.191614
  H       1.597177     23.177660     -1.254274
  H       1.499010     24.432459      0.010255
  C       7.350064     22.439210      1.423952
  C       7.582856     21.295021      2.221434
  C       8.858371     21.002268      2.711937
  C       9.952289     21.845573      2.431978
  C       9.718158     23.002811      1.666271
  C       8.439438     23.297530      1.170282
  H       6.744665     20.625137      2.466497
  H       9.010464     20.099495      3.323197
  H      10.558567     23.676001      1.431259
  H       8.284196     24.192257      0.547437
  C      11.329171     21.517997      2.978690
  C      11.432002     21.824969      4.464333
  H      12.089826     22.112303      2.433069
  H      11.549832     20.451725      2.785959
  C      11.613715     23.164764      4.853784
  C      11.635948     23.557430      6.196398
  C      11.464758     22.583574      7.204905
  C      11.275833     21.247893      6.830592
  C      11.261815     20.845228      5.476712
  C      11.053929     19.402723      5.171461
  H      11.162543     20.477462      7.610002
  H      11.740876     23.931087      4.071299
  C      12.016128     18.644187      4.468990
  C      11.798443     17.290522      4.189307
  C      10.617353     16.647271      4.609335
  C       9.662446     17.395774      5.323710
  C       9.879710     18.749955      5.605306
  H      12.955450     19.123973      4.154490
  H      12.559194     16.717759      3.635752
  H       8.729988     16.910869      5.653344
  H       9.120104     19.327458      6.154026
  C      10.361686     15.211919      4.260665
  Cl      9.549572     15.063308      2.634623
  H       9.686928     14.724183      4.988927
  H      11.299885     14.629824      4.191209
  C      11.529892     23.035135      8.649467
  C      12.608990     24.078811      8.841779
  H      11.679715     22.174640      9.331176
  H      10.544789     23.482427      8.928435
  C      12.785320     25.043086      7.824116
  C      11.867562     24.987549      6.623773
  H      12.263897     25.599115      5.788986
  H      10.886918     25.443003      6.903678
  C      13.456325     24.115596      9.961712
  C      14.468278     25.078550     10.068804
  C      14.677306     26.028134      9.044044
  C      13.811901     25.986887      7.928011
  H      13.960913     26.689300      7.094277
  H      15.103137     25.092982     10.966972
  H      13.324696     23.373824     10.765653
  C      15.777910     27.021133      9.094210
  C      16.948549     26.815960      9.854299
  C      17.980551     27.760563      9.829214
  C      15.696921     28.202955      8.325510
  C      16.733261     29.140764      8.258681
  C      17.903472     28.919185      9.032899
  H      18.887959     27.587053     10.429538
  H      17.070497     25.899035     10.449029
  H      14.781701     28.404247      7.754346
  C      19.041803     29.891529      9.027001
  Cl     18.670722     31.395783     10.006050
  H      19.288442     30.257867      8.012464
  H      19.950672     29.454384      9.479410
  C      16.615050     30.367200      7.362957
  C      15.291790     30.498802      6.648649
  H      17.437263     30.331565      6.613442
  H      16.810435     31.272195      7.976084
  C      15.035039     29.811465      5.444503
  C      13.787462     29.894882      4.811601
  C      12.747343     30.680998      5.355960
  C      13.005183     31.359557      6.568591
  C      14.249786     31.267342      7.201673
  H      15.834021     29.204171      4.989283
  C      11.445322     30.845484      4.661888
  C      10.800266     29.778160      3.996464
  C      10.820115     32.111723      4.649768
  C       9.576751     29.959404      3.327643
  C       8.976810     31.239863      3.318037
  C       9.603672     32.301354      3.989313
  H      11.253935     28.773823      4.024332
  H      11.310694     32.962808      5.144866
  H       9.132998     33.297369      3.983673
  C       7.675462     31.425974      2.577532
  H       7.155181     32.343546      2.917548
  H       7.901456     31.588761      1.495362
  C       8.871208     28.829470      2.596888
  H       9.173804     28.869669      1.521920
  H       9.217109     27.843136      2.967294
  H      14.418024     31.799383      8.151420
  H      12.205705     31.957762      7.031083
  H      13.627101     29.374745      3.854648
324
Coordinates from ORCA-job input E -9763.436773886704
  C      -2.903759      8.986769      2.203925
  C      -4.206665      9.164986      2.714654
  C      -4.957328      8.074956      3.168722
  C      -4.427554      6.770968      3.128438
  C      -3.115411      6.592358      2.645511
  C      -2.365546      7.682358      2.189136
  H      -1.338144      7.526168      1.826128
  H      -2.674528      5.582891      2.636152
  H      -4.643589     10.175166      2.724123
  H      -5.977679      8.235191      3.551297
  C      -5.221282      5.605082      3.636631
  Cl     -4.899573      5.301139      5.405949
  H      -4.959457      4.667055      3.111766
  H      -6.310189      5.777577      3.545959
  C      -1.110263     11.420039     -0.105775
  C      -0.863352     12.505716      0.752022
  C      -1.755173     10.247373      0.321039
  C      -1.232380     12.405531      2.108746
  C      -2.143982     10.156213      1.684887
  H      -0.819477     11.508537     -1.165993
  C      -1.861486     11.229577      2.550921
  H      -2.152390     11.139872      3.610188
  C      -2.192744      9.213705     -0.708553
  C      -3.686389      9.364248     -0.949886
  H      -1.971208      8.180990     -0.380387
  H      -1.631016      9.385946     -1.649727
  C      -4.618369      8.380225     -0.573292
  C      -5.989305      8.654033     -0.631910
  C      -6.477970      9.920928     -1.025777
  C      -5.547089     10.900742     -1.459455
  C      -4.178055     10.584946     -1.434818
  H      -4.269410      7.412513     -0.181116
  H      -6.709793      7.891745     -0.297820
  H      -3.458533     11.364191     -1.733025
  C      -7.939705     10.181293     -0.936243
  C      -8.863076      9.318728     -1.565460
  C     -10.241584      9.537084     -1.457578
  C     -10.743325     10.625568     -0.718454
  C      -8.447791     11.264555     -0.182966
  C      -9.825887     11.480949     -0.076258
  H      -8.485478      8.473657     -2.161204
  H     -10.944252      8.853393     -1.959934
  H      -7.749495     11.933337      0.343784
  H     -10.200704     12.323372      0.526355
  C     -12.219793     10.841105     -0.576517
  Cl    -12.877742     10.008765      0.908174
  H     -12.780960     10.427309     -1.435269
  H     -12.472170     11.912218     -0.462977
  C      -0.987240     13.564519      3.049054
  C       0.146944     14.466759      2.627649
  H      -0.823939     13.193245      4.082033
  H      -1.911285     14.190120      3.105701
  C      -0.284222     13.796221      0.227856
  C       0.482348     14.585851      1.262392
  H      -1.132025     14.427060     -0.132332
  H       0.347936     13.608478     -0.664217
  C       0.858882     15.233981      3.567969
  C       1.863308     16.122108      3.170622
  C       1.494276     15.476493      0.874259
  C       2.193222     16.272860      1.804765
  H       1.715855     15.581790     -0.199469
  H       0.618119     15.130415      4.638203
  H       2.418007     16.691091      3.931528
  C       3.185308     17.274234      1.344595
  C       3.931575     17.085764      0.159033
  C       4.769956     18.089927     -0.337732
  C       4.906370     19.324391      0.327043
  C       4.199640     19.496413      1.535112
  H       3.852602     16.132691     -0.385181
  H       5.322612     17.917609     -1.275501
  C       3.359874     18.495342      2.033073
  H       4.258365     20.459030      2.065082
  H       2.782967     18.694531      2.947996
  C      -5.927128     12.302330     -1.894581
  C      -5.258702     13.385746     -1.059641
  H      -7.028361     12.434112     -1.881060
  H      -5.625559     12.448154     -2.954712
  C      -4.804144     13.133251      0.250134
  C      -4.114081     14.106817      0.978561
  C      -5.032631     14.671460     -1.590723
  C      -4.354981     15.653990     -0.856525
  C      -3.863377     15.388983      0.442483
  H      -4.937647     12.134206      0.690142
  H      -3.714168     13.844991      1.967676
  H      -5.382941     14.903859     -2.609540
  H      -4.193910     16.649085     -1.299953
  C      -3.049532     16.390487      1.182467
  C      -2.034557     17.083692      0.487022
  C      -1.184437     18.009058      1.108334
  C      -3.245835     16.686175      2.560069
  C      -2.355109     17.577175      3.185055
  C      -1.319622     18.225065      2.496300
  H      -1.895249     16.874347     -0.585935
  H      -2.510283     17.813889      4.251023
  C      -4.497044     16.284110      3.330013
  C      -5.499256     17.423312      3.252405
  H      -4.243894     16.079740      4.389814
  H      -4.950793     15.364294      2.916911
  C      -5.856410     18.187506      4.374147
  C      -6.673141     19.318959      4.227388
  C      -7.152235     19.722520      2.966942
  C      -6.809924     18.945751      1.824098
  C      -6.004730     17.811738      1.997111
  H      -5.475650     17.911556      5.370509
  H      -6.939339     19.919698      5.110966
  H      -5.714299     17.237400      1.104468
  C      -7.900112     21.004664      2.837980
  C      -9.230707     21.061910      2.380763
  C      -9.865093     22.296485      2.177794
  C      -9.189881     23.505186      2.431176
  C      -7.869981     23.448698      2.920430
  C      -7.240314     22.219859      3.127169
  H      -9.771469     20.127185      2.167332
  H      -6.195592     22.188135      3.470507
  H      -7.319321     24.385242      3.098885
  H     -10.901118     22.321475      1.803479
  C      -9.861760     24.827189      2.189930
  Cl     -8.958141     25.862894      0.992519
  H      -9.921727     25.436212      3.113646
  H     -10.885105     24.694444      1.791224
  C      -7.177621     19.377523      0.414883
  C      -6.694719     20.781438      0.100946
  H      -8.275203     19.334668      0.256027
  H      -6.736314     18.646557     -0.296380
  C      -5.392379     21.194329      0.450028
  C      -5.008683     22.534830      0.327794
  C      -5.912855     23.506141     -0.156896
  C      -7.567496     21.734097     -0.451493
  C      -7.187053     23.073069     -0.581377
  H      -4.684943     20.462349      0.872057
  H      -3.992964     22.838905      0.625581
  H      -8.593100     21.435087     -0.719175
  H      -7.918627     23.816511     -0.929758
  C      -5.605673     24.954798     -0.131128
  C      -5.010598     25.538315      1.005731
  C      -4.841881     26.927821      1.121799
  C      -5.989376     25.806364     -1.189421
  C      -5.795659     27.187460     -1.095995
  C      -5.241563     27.767451      0.059516
  H      -4.721672     24.891064      1.849681
  H      -6.436168     25.373780     -2.097190
  H      -6.091987     27.837731     -1.934922
  C      -4.312577     27.540188      2.400059
  C      -3.623315     28.870022      2.200893
  C      -4.002784     29.699127      1.124172
  C      -5.116743     29.266262      0.200606
  H      -6.079442     29.661267      0.607987
  H      -5.005085     29.743189     -0.794968
  H      -3.639039     26.828896      2.921633
  H      -5.173864     27.692534      3.095362
  C      -2.639054     29.324087      3.092866
  C      -3.364618     30.938089      0.966077
  C      -2.393542     31.406380      1.873248
  C      -2.026153     30.583855      2.971560
  H      -2.339067     28.669601      3.928636
  H      -3.654643     31.586720      0.123520
  C      -1.770637     32.735039      1.620472
  C      -1.059811     32.964006      0.422279
  C      -0.451728     34.199442      0.171515
  C      -1.880838     33.798291      2.542881
  C      -1.271032     35.032784      2.292075
  C      -0.543417     35.249505      1.105534
  H      -0.966073     32.144895     -0.306861
  H       0.115836     34.351276     -0.760281
  H      -2.466398     33.653992      3.463563
  H      -1.362412     35.847398      3.027829
  C       0.164350     36.548685      0.867273
  Cl      1.869919     36.493899      1.515042
  H      -0.333552     37.392641      1.380507
  H       0.252389     36.781643     -0.210511
  C      -0.958823     30.978383      3.981119
  C      -0.131672     18.765177      0.330828
  C      -0.354216     19.145763      3.200863
  C       0.123237     20.285555      2.330135
  H       0.526170     18.533668      3.513199
  H      -0.797178     19.532403      4.141342
  C       0.207392     20.109367      0.933821
  H      -0.443219     18.879593     -0.727805
  H       0.802301     18.155919      0.303084
  C       0.659870     21.177859      0.140432
  C       0.502999     21.519194      2.883645
  C       0.981268     22.581426      2.093887
  C       1.067163     22.408384      0.685732
  H       0.728199     21.033850     -0.950903
  H       0.423147     21.668955      3.972687
  C       1.403249     23.848122      2.753523
  C       2.447325     23.858239      3.702858
  C       0.780599     25.075265      2.448890
  C       1.189247     26.267758      3.060205
  C       2.229476     26.278306      4.011495
  C       2.852980     25.050841      4.316445
  H       3.677475     25.030442      5.047591
  H       2.965742     22.916284      3.939328
  H      -0.050573     25.094418      1.726638
  H       0.681076     27.207664      2.798714
  C       2.642249     27.552969      4.743370
  C       0.947303     29.324146      4.280151
  C       1.239262     31.106295      2.691633
  C       0.427221     30.461797      3.644842
  H      -1.253309     30.585544      4.975138
  H      -0.909792     32.079215      4.073762
  C       2.242399     28.824706      4.032039
  C       3.081683     29.522262      3.119655
  C       2.533282     30.643856      2.448483
  H       0.865360     31.990414      2.154010
  H       3.157322     31.172822      1.712910
  H       0.325225     28.801383      5.026133
  H       3.732630     27.527145      4.940446
  H       2.152502     27.540173      5.742309
  C       4.535035     29.247241      2.939490
  C       5.119830     27.962805      2.846494
  C       6.514216     27.814596      2.767896
  C       7.371038     28.930746      2.741189
  C       6.793417     30.219137      2.764024
  C       5.406555     30.358983      2.887209
  H       4.483720     27.066201      2.825138
  H       6.945129     26.800435      2.726243
  H       4.984969     31.371922      2.976433
  C       5.748244     20.442322     -0.265972
  C       5.221647     21.818627      0.090311
  H       5.750219     20.327839     -1.371334
  H       6.806612     20.331159      0.046632
  C       5.947112     22.784714      0.836921
  C       5.334298     24.033001      1.093823
  C       4.010621     24.295615      0.718094
  C       3.908249     22.118224     -0.304379
  C       3.264337     23.315972      0.036506
  H       3.338643     21.343881     -0.842994
  H       5.898580     24.789466      1.661721
  H       3.540953     25.251958      0.995901
  C       1.766994     23.431217     -0.200329
  H       1.528024     23.213382     -1.261555
  H       1.429084     24.463110      0.007835
  C       7.305035     22.505066      1.373725
  C       7.551163     21.352421      2.155028
  C       8.830056     21.066970      2.641090
  C       9.914185     21.926918      2.374322
  C       9.666708     23.092272      1.625108
  C       8.384793     23.379378      1.132830
  H       6.720737     20.670542      2.392999
  H       8.991749     20.157057      3.238910
  H      10.498919     23.779689      1.402127
  H       8.219906     24.280592      0.521857
  C      11.295347     21.606427      2.914421
  C      11.395401     21.877725      4.407178
  H      12.047242     22.224957      2.383760
  H      11.531759     20.548574      2.694890
  C      11.572729     23.208297      4.829247
  C      11.592330     23.568432      6.181084
  C      11.423770     22.569691      7.165518
  C      11.240333     21.242708      6.758690
  C      11.229162     20.872836      5.395384
  C      11.030278     19.436828      5.055801
  H      11.129907     20.453078      7.519110
  H      11.698352     23.993959      4.065784
  C      11.996897     18.701225      4.335306
  C      11.787675     17.353124      4.023688
  C      10.610774     16.692621      4.428385
  C       9.651768     17.417767      5.161302
  C       9.860911     18.765996      5.475395
  H      12.933720     19.193769      4.033199
  H      12.551490     16.798678      3.455794
  H       8.722913     16.918983      5.480337
  H       9.098220     19.325396      6.038475
  C      10.363091     15.264829      4.044924
  Cl      9.537782     15.151884      2.422494
  H       9.698178     14.753104      4.765816
  H      11.304925     14.691817      3.952549
  C      11.487776     22.986864      8.620553
  C      12.570113     24.022835      8.836650
  H      11.635525     22.110343      9.282011
  H      10.503589     23.429998      8.909027
  C      12.745941     25.011231      7.842299
  C      11.822715     24.987653      6.644801
  H      12.215174     25.621843      5.825032
  H      10.842817     25.434349      6.940807
  C      13.422617     24.027753      9.953168
  C      14.440077     24.982740     10.079113
  C      14.648869     25.956232      9.077069
  C      13.778108     25.946834      7.964192
  H      13.926819     26.669393      7.147739
  H      15.079469     24.972153     10.974197
  H      13.292064     23.265640     10.738111
  C      15.758115     26.939291      9.143848
  C      16.930278     26.708895      9.894278
  C      17.969806     27.645626      9.883670
  C      15.682803     28.137831      8.400914
  C      16.726738     29.068054      8.347599
  C      17.898925     28.820380      9.110816
  H      18.878838     27.452463     10.475559
  H      17.046651     25.779287     10.470239
  H      14.765150     28.358471      7.841142
  C      19.045207     29.783255      9.118717
  Cl     18.692135     31.269694     10.131137
  H      19.289553     30.168796      8.110715
  H      19.952957     29.329453      9.556835
  C      16.615433     30.311218      7.473725
  C      15.296534     30.454919      6.753769
  H      17.442557     30.288467      6.729106
  H      16.808344     31.204599      8.104518
  C      15.043591     29.777122      5.543313
  C      13.798420     29.866748      4.906516
  C      12.757661     30.650918      5.452749
  C      13.011942     31.320522      6.671075
  C      14.254003     31.221538      7.308236
  H      15.843242     29.171066      5.087533
  C      11.457743     30.820937      4.755858
  C      10.810441     29.757658      4.086209
  C      10.838037     32.089990      4.744266
  C       9.589257     29.945130      3.414255
  C       8.994956     31.228154      3.405524
  C       9.624535     32.285763      4.080541
  H      11.260941     28.751695      4.112703
  H      11.331791     32.938096      5.241389
  H       9.157641     33.283618      4.075363
  C       7.697665     31.423743      2.660704
  H       7.178507     32.339933      3.006417
  H       7.929531     31.596248      1.581221
  C       8.882471     28.818672      2.679615
  H       9.195806     28.853458      1.607488
  H       9.218631     27.830879      3.055491
  H      14.419058     31.745216      8.263209
  H      12.211623     31.917393      7.133937
  H      13.640361     29.353991      3.945151
324
Coordinates from ORCA-job input E -9763.436910918201
  C      -2.848976      9.008921      2.226297
  C      -4.148548      9.180613      2.747818
  C      -4.888611      8.087422      3.211484
  C      -4.351199      6.786619      3.170330
  C      -3.042243      6.614625      2.676443
  C      -2.302948      7.707824      2.210467
  H      -1.278037      7.556502      1.838459
  H      -2.595279      5.607831      2.666301
  H      -4.591489     10.188137      2.758417
  H      -5.906636      8.242692      3.602224
  C      -5.133168      5.617319      3.688637
  Cl     -4.795488      5.321593      5.456450
  H      -4.869224      4.679248      3.164900
  H      -6.223933      5.782057      3.606062
  C      -1.091689     11.448517     -0.104611
  C      -0.844063     12.537375      0.748840
  C      -1.725701     10.272824      0.330189
  C      -1.199949     12.437207      2.109245
  C      -2.101606     10.181864      1.697578
  H      -0.812350     11.537372     -1.167901
  C      -1.817403     11.258279      2.559264
  H      -2.096323     11.167917      3.621686
  C      -2.163240      9.232807     -0.693196
  C      -3.660041      9.370337     -0.922469
  H      -1.930271      8.202772     -0.364413
  H      -1.610613      9.407195     -1.639356
  C      -4.580401      8.377643     -0.540012
  C      -5.954087      8.639672     -0.586429
  C      -6.456657      9.903375     -0.972967
  C      -5.538018     10.892048     -1.412517
  C      -4.166134     10.587897     -1.400431
  H      -4.219554      7.412370     -0.152660
  H      -6.665104      7.871012     -0.246625
  H      -3.455866     11.374594     -1.701331
  C      -7.919564     10.152204     -0.870647
  C      -8.841330      9.282840     -1.492907
  C     -10.220523      9.490995     -1.374253
  C     -10.724472     10.575153     -0.630245
  C      -8.429646     11.230718     -0.112008
  C      -9.808450     11.436667      0.005709
  H      -8.462033      8.440921     -2.092037
  H     -10.922067      8.802077     -1.871024
  H      -7.732225     11.903371      0.410940
  H     -10.184830     12.275749      0.612022
  C     -12.201264     10.780981     -0.478587
  Cl    -12.845096      9.938336      1.006326
  H     -12.765228     10.367415     -1.335638
  H     -12.459513     11.850047     -0.359033
  C      -0.952236     13.598778      3.045052
  C       0.175483     14.504034      2.613460
  H      -0.780899     13.230470      4.077814
  H      -1.877304     14.222360      3.106820
  C      -0.273540     13.828974      0.218092
  C       0.498854     14.622862      1.245197
  H      -1.125786     14.457001     -0.136803
  H       0.352353     13.641974     -0.678589
  C       0.893311     15.273575      3.547232
  C       1.890653     16.165320      3.140534
  C       1.502865     15.518261      0.847514
  C       2.207099     16.317251      1.771755
  H       1.716717     15.622268     -0.227934
  H       0.662783     15.168842      4.619609
  H       2.450989     16.736166      3.895880
  C       3.186146     17.327080      1.302797
  C       3.927968     17.143874      0.113562
  C       4.752397     18.156252     -0.389938
  C       4.877243     19.394358      0.270631
  C       4.175625     19.560971      1.482450
  H       3.856349     16.188750     -0.428115
  H       5.301657     17.988192     -1.330488
  C       3.350284     18.551590      1.987331
  H       4.225788     20.525167      2.010254
  H       2.775336     18.746241      2.904534
  C      -5.933422     12.291517     -1.840499
  C      -5.265212     13.378012     -1.009098
  H      -7.035483     12.414780     -1.816594
  H      -5.642746     12.442590     -2.902920
  C      -4.792913     13.125190      0.294325
  C      -4.101509     14.101945      1.017099
  C      -5.054735     14.666797     -1.539259
  C      -4.375304     15.652342     -0.810571
  C      -3.866156     15.387202      0.481449
  H      -4.913005     12.124001      0.733328
  H      -3.687940     13.841254      2.000976
  H      -5.417458     14.898709     -2.553852
  H      -4.227177     16.649678     -1.253703
  C      -3.052169     16.392361      1.215828
  C      -2.047601     17.092114      0.512301
  C      -1.197810     18.022508      1.126646
  C      -3.238179     16.685483      2.595463
  C      -2.346651     17.580418      3.213365
  C      -1.321347     18.235661      2.515982
  H      -1.916702     16.883940     -0.561927
  H      -2.493043     17.815012      4.281061
  C      -4.482968     16.279627      3.373559
  C      -5.488271     17.416597      3.299586
  H      -4.223247     16.077395      4.432163
  H      -4.936338     15.358002      2.964053
  C      -5.836990     18.185454      4.420820
  C      -6.654399     19.316653      4.275550
  C      -7.142322     19.715814      3.017128
  C      -6.809501     18.933664      1.874937
  C      -6.002800     17.800501      2.046477
  H      -5.446887     17.915088      5.415100
  H      -6.912557     19.921809      5.158534
  H      -5.718712     17.222865      1.153864
  C      -7.889597     20.998346      2.887395
  C      -9.223109     21.055470      2.438389
  C      -9.856743     22.289671      2.232691
  C      -9.178086     23.498743      2.475212
  C      -7.855239     23.442637      2.956092
  C      -7.226247     22.213784      3.166301
  H      -9.766809     20.120373      2.234128
  H      -6.179321     22.182477      3.502859
  H      -7.303151     24.379559      3.128061
  H     -10.895080     22.314293      1.864757
  C      -9.848959     24.820683      2.231009
  Cl     -8.957660     25.843046      1.013391
  H      -9.895181     25.437387      3.150348
  H     -10.877809     24.687254      1.846870
  C      -7.187335     19.360171      0.466758
  C      -6.704857     20.762283      0.143490
  H      -8.286004     19.318231      0.315569
  H      -6.752350     18.625905     -0.245064
  C      -5.401785     21.177575      0.486809
  C      -5.017299     22.516532      0.351107
  C      -5.920850     23.483473     -0.143598
  C      -7.577597     21.710219     -0.417080
  C      -7.195791     23.047285     -0.561937
  H      -4.693692     20.448902      0.913524
  H      -4.001188     22.822520      0.645158
  H      -8.603404     21.409500     -0.681990
  H      -7.927274     23.787046     -0.918180
  C      -5.608717     24.931177     -0.140977
  C      -5.016588     25.534171      0.986980
  C      -4.835654     26.924466      1.074163
  C      -5.980817     25.763277     -1.218814
  C      -5.772048     27.143729     -1.155328
  C      -5.216863     27.743871     -0.010435
  H      -4.741074     24.903081      1.847492
  H      -6.426759     25.315137     -2.119454
  H      -6.056647     27.778174     -2.010316
  C      -4.309872     27.556946      2.343874
  C      -3.616835     28.882112      2.128212
  C      -3.971711     29.688510      1.026436
  C      -5.070475     29.243712      0.090703
  H      -6.035667     29.667155      0.462085
  H      -4.927426     29.688632     -0.915772
  H      -3.639037     26.852664      2.878507
  H      -5.172524     27.720051      3.034975
  C      -2.648764     29.353274      3.029592
  C      -3.321481     30.919188      0.851052
  C      -2.364130     31.402679      1.764204
  C      -2.025556     30.605986      2.890750
  H      -2.369487     28.717099      3.886453
  H      -3.592074     31.549397     -0.011745
  C      -1.717887     32.714789      1.485869
  C      -0.981123     32.897868      0.295517
  C      -0.348176     34.115670      0.021611
  C      -1.828115     33.805623      2.375491
  C      -1.192976     35.022343      2.101977
  C      -0.438883     35.192807      0.924363
  H      -0.886980     32.056550     -0.407752
  H       0.240570     34.231407     -0.902168
  H      -2.433125     33.696632      3.288389
  H      -1.283067     35.858665      2.813112
  C       0.296057     36.472283      0.663711
  Cl      1.989158     36.403572      1.343060
  H      -0.194515     37.338884      1.145286
  H       0.407457     36.674416     -0.418121
  C      -0.976734     31.019129      3.912828
  C      -0.161230     18.789139      0.338087
  C      -0.357008     19.162878      3.213121
  C       0.106714     20.305451      2.338976
  H       0.529372     18.556986      3.520755
  H      -0.796373     19.547535      4.156185
  C       0.176729     20.133147      0.941574
  H      -0.489784     18.906621     -0.715157
  H       0.776059     18.185796      0.292448
  C       0.613419     21.206519      0.145685
  C       0.485290     21.540141      2.891110
  C       0.947299     22.607260      2.098593
  C       1.017594     22.438866      0.688833
  H       0.670040     21.065547     -0.946738
  H       0.415341     21.687408      3.981167
  C       1.366622     23.874874      2.758198
  C       2.420801     23.888969      3.696197
  C       0.730949     25.098163      2.465427
  C       1.137146     26.291170      3.077083
  C       2.186965     26.305819      4.017518
  C       2.823175     25.082219      4.311023
  H       3.656387     25.065815      5.032313
  H       2.949175     22.949984      3.922072
  H      -0.107776     25.114399      1.752063
  H       0.620570     27.228320      2.822388
  C       2.593937     27.580146      4.752641
  C       0.915955     29.357938      4.251680
  C       1.251849     31.143571      2.675333
  C       0.415553     30.499853      3.607885
  H      -1.288634     30.640945      4.907237
  H      -0.931607     32.121094      3.990001
  C       2.213803     28.852495      4.031290
  C       3.074923     29.545992      3.136658
  C       2.547492     30.672893      2.457397
  H       0.895943     32.032464      2.133399
  H       3.190403     31.199692      1.736732
  H       0.275008     28.837332      4.983006
  H       3.680083     27.548337      4.970218
  H       2.085015     27.572807      5.742121
  C       4.528847     29.259956      2.981402
  C       5.104623     27.970703      2.897065
  C       6.498678     27.811129      2.840354
  C       7.365086     28.919919      2.827097
  C       6.797888     30.212784      2.844319
  C       5.410424     30.364101      2.946061
  H       4.460959     27.079754      2.866620
  H       6.922591     26.793981      2.804848
  H       4.996253     31.380274      3.033166
  C       5.701679     20.521148     -0.331239
  C       5.169422     21.891110      0.039933
  H       5.685316     20.411001     -1.436923
  H       6.766128     20.416643     -0.037609
  C       5.892297     22.857438      0.789123
  C       5.270119     24.097969      1.060490
  C       3.940964     24.351608      0.698796
  C       3.850044     22.182353     -0.341441
  C       3.197471     23.370677      0.016478
  H       3.282992     21.407750     -0.882404
  H       5.833606     24.855153      1.627480
  H       3.465190     25.300996      0.990045
  C       1.696563     23.471030     -0.202986
  H       1.447558     23.253167     -1.261849
  H       1.348945     24.498298      0.011847
  C       7.255666     22.586570      1.316675
  C       7.518765     21.423690      2.077294
  C       8.802004     21.147118      2.557003
  C       9.873995     22.026834      2.306117
  C       9.609520     23.202033      1.578218
  C       8.323478     23.479739      1.090974
  H       6.698444     20.726605      2.305588
  H       8.976042     20.228737      3.137789
  H      10.431807     23.905237      1.367872
  H       8.146383     24.388873      0.495335
  C      11.260754     21.714297      2.837213
  C      11.357232     21.938116      4.338112
  H      12.001292     22.363123      2.327261
  H      11.516625     20.668694      2.582529
  C      11.524116     23.255897      4.802913
  C      11.540384     23.572279      6.165689
  C      11.379074     22.540875      7.117335
  C      11.206669     21.226265      6.667867
  C      11.199608     20.900368      5.293262
  C      11.015062     19.474085      4.907868
  H      11.103225     20.411529      7.402364
  H      11.643113     24.067005      4.065362
  C      11.988249     18.772140      4.163211
  C      11.792517     17.432663      3.808271
  C      10.623063     16.747213      4.192365
  C       9.657786     17.438201      4.949804
  C       9.853601     18.777457      5.307392
  H      12.919620     19.283742      3.876252
  H      12.561509     16.904696      3.222398
  H       8.734804     16.919564      5.253865
  H       9.085959     19.310415      5.889126
  C      10.388898     15.330434      3.762684
  Cl      9.546720     15.262599      2.146336
  H       9.738214     14.785785      4.472392
  H      11.336532     14.772753      3.640666
  C      11.442327     22.912496      8.584801
  C      12.526635     23.940084      8.830492
  H      11.589847     22.016091      9.219093
  H      10.458689     23.347848      8.886252
  C      12.696483     24.960983      7.868344
  C      11.763928     24.976225      6.677625
  H      12.146406     25.642272      5.878452
  H      10.783652     25.405633      6.996733
  C      13.386884     23.906281      9.940336
  C      14.407787     24.854203     10.089944
  C      14.612605     25.858534      9.118155
  C      13.732496     25.889042      8.012615
  H      13.878033     26.637332      7.219045
  H      15.055101     24.811738     10.978371
  H      13.259522     23.119295     10.700909
  C      15.726583     26.835087      9.207721
  C      16.901172     26.579471      9.946234
  C      17.946005     27.510414      9.953168
  C      15.654537     28.051918      8.494919
  C      16.704198     28.976384      8.457380
  C      17.878346     28.703644      9.208913
  H      18.856771     27.298170     10.535827
  H      17.015284     25.634643     10.497341
  H      14.735918     28.289303      7.943927
  C      19.030630     29.658949      9.232693
  Cl     18.693333     31.122626     10.282697
  H      19.271338     30.067190      8.232750
  H      19.938334     29.189379      9.654050
  C      16.595327     30.240630      7.613382
  C      15.281633     30.395047      6.886299
  H      17.428776     30.238573      6.875511
  H      16.780876     31.119169      8.266923
  C      15.033300     29.722964      5.671515
  C      13.791752     29.818648      5.028722
  C      12.750661     30.604302      5.572581
  C      13.001060     31.269921      6.793795
  C      14.239211     31.163782      7.437581
  H      15.833528     29.115877      5.218152
  C      11.455152     30.781452      4.869355
  C      10.802878     29.721575      4.199285
  C      10.845087     32.055229      4.852294
  C       9.585868     29.916690      3.521266
  C       9.001852     31.204295      3.506519
  C       9.636559     32.258571      4.182196
  H      11.245956     28.712303      4.230567
  H      11.343224     32.900335      5.350188
  H       9.177200     33.259907      4.172034
  C       7.710800     31.411210      2.754604
  H       7.195060     32.328706      3.102165
  H       7.950905     31.589054      1.677747
  C       8.875962     28.793062      2.785827
  H       9.203229     28.815843      1.717541
  H       9.197396     27.804496      3.172796
  H      14.401035     31.683558      8.395231
  H      12.199858     31.867463      7.254283
  H      13.636006     29.308703      4.065473
324
Coordinates from ORCA-job input E -9763.437052147563
  C      -2.796694      9.029286      2.224290
  C      -4.093496      9.198038      2.753850
  C      -4.828961      8.103031      3.220317
  C      -4.289361      6.803311      3.174622
  C      -2.983038      6.634266      2.672958
  C      -2.248357      7.729277      2.203875
  H      -1.225639      7.579992      1.825031
  H      -2.534266      5.628316      2.659529
  H      -4.538189     10.204732      2.768163
  H      -5.844718      8.256166      3.617702
  C      -5.065927      5.632020      3.696372
  Cl     -4.717384      5.335190      5.461894
  H      -4.803336      4.695007      3.170063
  H      -6.157508      5.794478      3.620230
  C      -1.062253     11.477492     -0.115887
  C      -0.812937     12.566683      0.736700
  C      -1.689426     10.299016      0.322133
  C      -1.161209     12.464415      2.099091
  C      -2.055734     10.205099      1.691892
  H      -0.788842     11.567272     -1.180650
  C      -1.770990     11.282707      2.552122
  H      -2.043039     11.190671      3.616197
  C      -2.130968      9.258658     -0.699242
  C      -3.631481      9.383474     -0.910728
  H      -1.884739      8.229390     -0.377378
  H      -1.590671      9.440489     -1.651170
  C      -4.538276      8.379637     -0.525164
  C      -5.914798      8.628577     -0.555328
  C      -6.433459      9.889378     -0.929955
  C      -5.529090     10.889249     -1.373728
  C      -4.154188     10.598659     -1.376733
  H      -4.163868      7.415648     -0.147635
  H      -6.614662      7.851329     -0.211930
  H      -3.454873     11.393587     -1.681772
  C      -7.897095     10.125014     -0.808918
  C      -8.818644      9.248590     -1.421706
  C     -10.198014      9.444946     -1.286870
  C     -10.702403     10.524115     -0.535915
  C      -8.407334     11.198214     -0.043042
  C      -9.786417     11.392571      0.090417
  H      -8.439188      8.410811     -2.026490
  H     -10.899393      8.750620     -1.776287
  H      -7.709609     11.876413      0.472272
  H     -10.162800     12.227791      0.702051
  C     -12.179101     10.718326     -0.368584
  Cl    -12.802088      9.862858      1.117510
  H     -12.748431     10.305716     -1.222579
  H     -12.443623     11.784940     -0.241010
  C      -0.913449     13.626926      3.032905
  C       0.209918     14.535765      2.597180
  H      -0.739700     13.260866      4.066029
  H      -1.839108     14.249747      3.095314
  C      -0.248274     13.860150      0.203545
  C       0.525464     14.657721      1.227248
  H      -1.103511     14.485225     -0.149665
  H       0.375092     13.674887     -0.695301
  C       0.928533     15.307795      3.528158
  C       1.919037     16.205332      3.117446
  C       1.523530     15.558331      0.825365
  C       2.227131     16.361139      1.747198
  H       1.730968     15.666237     -0.251027
  H       0.704215     15.199923      4.601554
  H       2.479486     16.779726      3.870233
  C       3.196452     17.379156      1.274976
  C       3.940847     17.201362      0.086257
  C       4.752119     18.222956     -0.420503
  C       4.859248     19.465816      0.235043
  C       4.156647     19.626431      1.446819
  H       3.880398     16.243929     -0.452831
  H       5.303059     18.059316     -1.360854
  C       3.345365     18.607546      1.955594
  H       4.194050     20.592356      1.972131
  H       2.767255     18.797623      2.871751
  C      -5.942731     12.286126     -1.792909
  C      -5.279004     13.376588     -0.963112
  H      -7.045845     12.397666     -1.760518
  H      -5.662021     12.444373     -2.856962
  C      -4.801132     13.126343      0.338769
  C      -4.111814     14.106456      1.059055
  C      -5.077419     14.666652     -1.493713
  C      -4.400087     15.655499     -0.767490
  C      -3.884185     15.392408      0.522083
  H      -4.915178     12.124801      0.778666
  H      -3.695016     13.848411      2.042605
  H      -5.444840     14.896859     -2.507015
  H      -4.258359     16.653377     -1.211693
  C      -3.068169     16.399390      1.250746
  C      -2.070482     17.101513      0.540045
  C      -1.219046     18.034586      1.148132
  C      -3.243962     16.690706      2.631892
  C      -2.349168     17.586111      3.243765
  C      -1.330938     18.244611      2.538837
  H      -1.950055     16.896502     -0.536002
  H      -2.486035     17.817882      4.313375
  C      -4.481614     16.278270      3.417670
  C      -5.492061     17.411108      3.349199
  H      -4.215434     16.077045      4.474866
  H      -4.932459     15.354450      3.010224
  C      -5.833936     18.181668      4.471444
  C      -6.653464     19.311817      4.329977
  C      -7.150228     19.708695      3.074235
  C      -6.825336     18.924341      1.931339
  C      -6.015572     17.792683      2.099025
  H      -5.435761     17.914356      5.463350
  H      -6.905531     19.918536      5.213662
  H      -5.736068     17.214818      1.204914
  C      -7.897678     20.991501      2.946967
  C      -9.233335     21.050379      2.504410
  C      -9.865772     22.285249      2.300498
  C      -9.184747     23.493507      2.539973
  C      -7.859635     23.435599      3.014620
  C      -7.231114     22.205961      3.222008
  H      -9.778974     20.115764      2.303068
  H      -6.183700     22.173476      3.556882
  H      -7.305987     24.371915      3.185215
  H     -10.906325     22.311356      1.938920
  C      -9.850545     24.817198      2.293569
  Cl     -8.973279     25.819531      1.048358
  H      -9.873682     25.443805      3.206858
  H     -10.887088     24.687917      1.929261
  C      -7.213257     19.349665      0.525513
  C      -6.733454     20.751656      0.196812
  H      -8.312987     19.307941      0.382244
  H      -6.784342     18.614314     -0.188876
  C      -5.428330     21.168766      0.529177
  C      -5.044204     22.506706      0.381767
  C      -5.950044     23.470360     -0.115067
  C      -7.610123     21.696846     -0.362733
  C      -7.228511     23.032563     -0.520211
  H      -4.716861     20.441979      0.953667
  H      -4.026264     22.814388      0.667347
  H      -8.637125     21.394004     -0.620677
  H      -7.962069     23.769844     -0.877277
  C      -5.631880     24.916729     -0.137327
  C      -5.039553     25.539369      0.979376
  C      -4.843547     26.929430      1.035446
  C      -5.991381     25.727877     -1.235363
  C      -5.764974     27.106588     -1.203805
  C      -5.205428     27.727061     -0.071652
  H      -4.772915     24.924659      1.854437
  H      -6.437515     25.263635     -2.127750
  H      -6.035630     27.723627     -2.075906
  C      -4.320093     27.583740      2.294795
  C      -3.617378     28.900290      2.058687
  C      -3.944627     29.681565      0.930766
  C      -5.031571     29.226207     -0.013510
  H      -5.996047     29.681665      0.320067
  H      -4.856945     29.634964     -1.030454
  H      -3.655636     26.886047      2.845896
  H      -5.184670     27.763170      2.979421
  C      -2.663274     29.387390      2.966908
  C      -3.276105     30.899682      0.734619
  C      -2.327394     31.395508      1.649664
  C      -2.022891     30.628644      2.806470
  H      -2.409644     28.772936      3.847281
  H      -3.520789     31.508322     -0.151230
  C      -1.647346     32.683074      1.339412
  C      -0.890504     32.808267      0.154168
  C      -0.220866     33.998984     -0.149218
  C      -1.741114     33.804927      2.191549
  C      -1.069217     34.994643      1.888775
  C      -0.293478     35.106192      0.718046
  H      -0.809621     31.942216     -0.520017
  H       0.384089     34.068760     -1.067086
  H      -2.363058     33.742346      3.097344
  H      -1.144884     35.855281      2.571999
  C       0.483114     36.354593      0.429585
  Cl      2.165408     36.254266      1.131917
  H       0.013827     37.249664      0.879252
  H       0.613561     36.521361     -0.656155
  C      -0.990768     31.057923      3.839388
  C      -0.191975     18.805544      0.351193
  C      -0.363224     19.173421      3.228937
  C       0.088948     20.318558      2.352378
  H       0.527479     18.569807      3.528941
  H      -0.795604     19.555831      4.176210
  C       0.146183     20.149580      0.954047
  H      -0.531221     18.923835     -0.698583
  H       0.746276     18.204549      0.294824
  C       0.569420     21.227170      0.156180
  C       0.466622     21.553953      2.903090
  C       0.913038     22.625799      2.108364
  C       0.970537     22.461292      0.697681
  H       0.617273     21.088433     -0.936946
  H       0.405995     21.698962      3.994009
  C       1.328532     23.894002      2.768525
  C       2.385460     23.911676      3.703248
  C       0.683808     25.114051      2.481796
  C       1.085688     26.307719      3.094356
  C       2.138680     26.325973      4.030857
  C       2.783152     25.105772      4.319346
  H       3.618282     25.092645      5.038484
  H       2.920193     22.975234      3.924018
  H      -0.157903     25.127326      1.772077
  H       0.563000     27.242467      2.843302
  C       2.540204     27.601539      4.765283
  C       0.884871     29.387712      4.221719
  C       1.266486     31.170068      2.652264
  C       0.405656     30.532028      3.565979
  H      -1.321148     30.696247      4.833972
  H      -0.945864     32.160661      3.901190
  C       2.183375     28.872728      4.029844
  C       3.067210     29.557540      3.150594
  C       2.562211     30.688182      2.460623
  H       0.930358     32.062528      2.103893
  H       3.223677     31.209091      1.752649
  H       0.225253     28.873584      4.940871
  H       3.621200     27.563224      5.005930
  H       2.010660     27.604283      5.743968
  C       4.520848     29.258738      3.021122
  C       5.087434     27.964173      2.951326
  C       6.480655     27.792564      2.914839
  C       7.356550     28.894448      2.907182
  C       6.799405     30.191743      2.910338
  C       5.412133     30.354768      2.992418
  H       4.436824     27.078644      2.914040
  H       6.896244     26.771218      2.891628
  H       5.005861     31.375046      3.067785
  C       5.665084     20.603188     -0.374297
  C       5.122972     21.966464      0.007105
  H       5.633642     20.495164     -1.479868
  H       6.734683     20.508490     -0.096399
  C       5.839144     22.936591      0.758336
  C       5.204125     24.168774      1.039991
  C       3.869348     24.407760      0.689242
  C       3.797889     22.244200     -0.364209
  C       3.132873     23.421683      0.006338
  H       3.236908     21.466424     -0.906994
  H       5.762266     24.930934      1.606338
  H       3.384710     25.350327      0.988015
  C       1.629082     23.502759     -0.199444
  H       1.372726     23.282519     -1.255982
  H       1.269363     24.524918      0.019457
  C       7.207300     22.677093      1.278835
  C       7.486946     21.505856      2.020723
  C       8.774288     21.238301      2.493824
  C       9.834861     22.135272      2.255780
  C       9.553611     23.319105      1.548483
  C       8.263323     23.587640      1.066883
  H       6.676572     20.794553      2.240336
  H       8.960945     20.312163      3.057810
  H      10.366661     24.035687      1.347484
  H       8.073971     24.504304      0.486739
  C      11.227482     21.828174      2.775367
  C      11.322268     22.002568      4.282937
  H      11.956951     22.505161      2.286591
  H      11.500358     20.796166      2.484604
  C      11.473214     23.306340      4.791257
  C      11.490245     23.576405      6.163761
  C      11.344616     22.511372      7.080709
  C      11.188533     21.210577      6.587853
  C      11.182400     20.931040      5.202950
  C      11.021103     19.515535      4.769915
  H      11.098454     20.370212      7.294730
  H      11.579112     24.143492      4.081262
  C      12.002377     18.857790      3.996285
  C      11.828683     17.528240      3.595339
  C      10.674413     16.808342      3.961562
  C       9.701948     17.454277      4.749088
  C       9.875418     18.783627      5.151950
  H      12.922204     19.396281      3.721570
  H      12.603887     17.035169      2.987646
  H       8.790470     16.908483      5.040018
  H       9.102388     19.281122      5.757560
  C      10.463018     15.403535      3.483627
  Cl      9.596524     15.376215      1.879116
  H       9.835402     14.819424      4.182706
  H      11.420036     14.871072      3.327099
  C      11.410242     22.836295      8.559201
  C      12.492916     23.858933      8.831974
  H      11.562039     21.921244      9.165243
  H      10.426317     23.259883      8.875797
  C      12.648770     24.913120      7.903605
  C      11.701409     24.963335      6.725361
  H      12.065114     25.664781      5.947752
  H      10.719794     25.367407      7.072137
  C      13.365235     23.789518      9.930300
  C      14.386175     24.733971     10.099984
  C      14.578632     25.770642      9.160440
  C      13.684739     25.837643      8.067102
  H      13.820358     26.612339      7.297569
  H      15.043492     24.662837     10.979125
  H      13.248208     22.976543     10.664767
  C      15.695596     26.742563      9.268263
  C      16.874453     26.465672      9.992543
  C      17.922293     27.392995     10.014686
  C      15.622333     27.977051      8.586767
  C      16.675259     28.898010      8.562727
  C      17.853928     28.603317      9.298725
  H      18.836439     27.164140     10.585651
  H      16.989142     25.507435     10.519751
  H      14.700010     28.231321      8.049886
  C      19.009339     29.554340      9.336760
  Cl     18.683545     30.995302     10.420673
  H      19.245472     29.983566      8.344487
  H      19.918289     29.072843      9.741780
  C      16.564656     30.181778      7.749092
  C      15.257584     30.343470      7.011993
  H      17.405989     30.203512      7.020420
  H      16.738532     31.045810      8.424885
  C      15.014161     29.667759      5.797879
  C      13.777726     29.767189      5.146302
  C      12.737071     30.560956      5.679554
  C      12.982902     31.231112      6.899061
  C      14.215820     31.120343      7.552368
  H      15.813932     29.053608      5.353350
  C      11.447211     30.741482      4.967272
  C      10.790727     29.681148      4.302169
  C      10.846841     32.019719      4.936339
  C       9.578817     29.879758      3.615513
  C       9.004851     31.171851      3.586718
  C       9.644092     32.226690      4.257445
  H      11.226297     28.668863      4.344216
  H      11.348529     32.864776      5.430795
  H       9.192456     33.231375      4.236017
  C       7.720246     31.384203      2.825996
  H       7.207341     32.305116      3.168853
  H       7.968542     31.560228      1.750661
  C       8.866559     28.754175      2.885143
  H       9.206801     28.759876      1.820676
  H       9.174636     27.767369      3.287536
  H      14.373531     31.642604      8.509340
  H      12.181732     31.835168      7.351055
  H      13.625316     29.253506      4.184488
324
Coordinates from ORCA-job input E -9763.437160300624
  C      -2.753026      9.036012      2.211116
  C      -4.047531      9.198576      2.748238
  C      -4.777519      8.099237      3.212840
  C      -4.234265      6.801358      3.158187
  C      -2.929785      6.638599      2.649972
  C      -2.200596      7.737996      2.182427
  H      -1.179417      7.593604      1.797624
  H      -2.478178      5.634078      2.629830
  H      -4.494856     10.203961      2.769758
  H      -5.791596      8.247359      3.616219
  C      -5.005033      5.625370      3.678009
  Cl     -4.647402      5.321163      5.440337
  H      -4.742220      4.691655      3.146066
  H      -6.097340      5.785216      3.607487
  C      -1.040852     11.498998     -0.129932
  C      -0.789476     12.585624      0.725480
  C      -1.661930     10.316990      0.307616
  C      -1.130088     12.477308      2.089254
  C      -2.019416     10.216646      1.679254
  H      -0.773202     11.592722     -1.195747
  C      -1.733529     11.292177      2.541342
  H      -1.999025     11.195398      3.606643
  C      -2.103296      9.277087     -0.714335
  C      -3.606131      9.390693     -0.914373
  H      -1.846498      8.248400     -0.398616
  H      -1.571141      9.466142     -1.669440
  C      -4.501651      8.375825     -0.531839
  C      -5.880383      8.613066     -0.550759
  C      -6.412285      9.872404     -0.911778
  C      -5.519353     10.882847     -1.355025
  C      -4.142143     10.604634     -1.367977
  H      -4.116468      7.412119     -0.164663
  H      -6.570947      7.827301     -0.208130
  H      -3.451886     11.407409     -1.672980
  C      -7.876626     10.094866     -0.776896
  C      -8.796177      9.214307     -1.387023
  C     -10.175823      9.397674     -1.238420
  C     -10.682719     10.467794     -0.476252
  C      -8.389336     11.157709      0.001603
  C      -9.768751     11.339287      0.148431
  H      -8.415076      8.383800     -2.000630
  H     -10.875507      8.700884     -1.726663
  H      -7.693113     11.837256      0.517022
  H     -10.146756     12.166984      0.769153
  C     -12.159479     10.647396     -0.293330
  Cl    -12.758776      9.775137      1.192512
  H     -12.733081     10.235673     -1.144854
  H     -12.432267     11.710614     -0.155629
  C      -0.881174     13.636995      3.025665
  C       0.236864     14.551170      2.587113
  H      -0.701943     13.269014      4.057019
  H      -1.807990     14.257708      3.092614
  C      -0.231114     13.882334      0.193255
  C       0.544365     14.679572      1.215970
  H      -1.089880     14.504861     -0.155948
  H       0.389346     13.701080     -0.708386
  C       0.956682     15.323099      3.517154
  C       1.940471     16.227032      3.104515
  C       1.537248     15.585094      0.812100
  C       2.240902     16.388670      1.733246
  H       1.738716     15.698586     -0.264877
  H       0.738110     15.210543      4.591228
  H       2.501243     16.802662      3.856194
  C       3.202165     17.413572      1.259727
  C       3.945982     17.242000      0.069497
  C       4.747249     18.270785     -0.438659
  C       4.843571     19.515011      0.216476
  C       4.142818     19.668952      1.429760
  H       3.892307     16.284126     -0.469562
  H       5.297907     18.112156     -1.379963
  C       3.341930     18.642700      1.940324
  H       4.172872     20.634907      1.955304
  H       2.763961     18.827579      2.857570
  C      -5.948029     12.278173     -1.764569
  C      -5.283094     13.369962     -0.937980
  H      -7.051418     12.380982     -1.719320
  H      -5.680447     12.442136     -2.831110
  C      -4.795280     13.118428      0.359906
  C      -4.104876     14.099289      1.078491
  C      -5.089380     14.661776     -1.467053
  C      -4.411912     15.651487     -0.742350
  C      -3.887264     15.387632      0.543695
  H      -4.901430     12.114763      0.797039
  H      -3.681062     13.839223      2.058636
  H      -5.463040     14.892941     -2.477796
  H      -4.277142     16.650917     -1.184759
  C      -3.071375     16.397487      1.268572
  C      -2.081101     17.104506      0.552255
  C      -1.230723     18.041315      1.156090
  C      -3.241491     16.688947      2.650431
  C      -2.347177     17.587676      3.257699
  C      -1.334647     18.249271      2.547595
  H      -1.967058     16.902044     -0.524917
  H      -2.477964     17.817021      4.328558
  C      -4.475643     16.274090      3.440610
  C      -5.482468     17.411021      3.385262
  H      -4.204735     16.065522      4.495107
  H      -4.930951     15.354563      3.028912
  C      -5.810107     18.179536      4.513103
  C      -6.627806     19.312476      4.383747
  C      -7.137471     19.713560      3.134452
  C      -6.830813     18.928700      1.986868
  C      -6.022087     17.794651      2.142683
  H      -5.406181     17.905474      5.500802
  H      -6.866186     19.919050      5.271252
  H      -5.760197     17.214452      1.244776
  C      -7.880967     20.999853      3.018535
  C      -9.221310     21.066711      2.593080
  C      -9.849701     22.305459      2.399930
  C      -9.159580     23.509266      2.632602
  C      -7.828754     23.443525      3.091626
  C      -7.204283     22.210310      3.288288
  H      -9.774345     20.135331      2.397267
  H      -6.153794     22.171324      3.612496
  H      -7.267189     24.376209      3.256208
  H     -10.894643     22.338124      2.051860
  C      -9.819032     24.837582      2.395649
  Cl     -8.953502     25.830064      1.133039
  H      -9.818761     25.466180      3.307725
  H     -10.862473     24.717816      2.048595
  C      -7.236026     19.356598      0.586565
  C      -6.759132     20.758113      0.251292
  H      -8.337650     19.316828      0.458600
  H      -6.818379     18.621032     -0.134082
  C      -5.450353     21.175334      0.567960
  C      -5.066416     22.512105      0.409003
  C      -5.975842     23.473148     -0.085130
  C      -7.640734     21.701333     -0.304553
  C      -7.258972     23.035120     -0.474845
  H      -4.734949     20.449597      0.987304
  H      -4.045732     22.821104      0.683116
  H      -8.669890     21.397122     -0.551876
  H      -7.994312     23.771303     -0.830147
  C      -5.654619     24.918523     -0.123555
  C      -5.056311     25.552295      0.983218
  C      -4.852436     26.941963      1.020628
  C      -6.014686     25.717155     -1.230620
  C      -5.779977     27.094612     -1.217950
  C      -5.211130     27.726417     -0.096529
  H      -4.789674     24.947148      1.864905
  H      -6.467603     25.243754     -2.114701
  H      -6.048755     27.701413     -2.097724
  C      -4.321263     27.609373      2.270058
  C      -3.613904     28.920362      2.015789
  C      -3.933451     29.685205      0.874753
  C      -5.021959     29.224302     -0.064584
  H      -5.982753     29.697727      0.253888
  H      -4.837482     29.611116     -1.088437
  H      -3.656365     26.916110      2.826116
  H      -5.182547     27.798726      2.956018
  C      -2.659165     29.416857      2.918860
  C      -3.255062     30.894325      0.659585
  C      -2.302176     31.397180      1.565943
  C      -2.008500     30.650130      2.738457
  H      -2.412708     28.815932      3.810453
  H      -3.487877     31.487146     -0.239819
  C      -1.605306     32.669345      1.230134
  C      -0.843830     32.755418      0.044354
  C      -0.146742     33.924514     -0.279945
  C      -1.678159     33.809858      2.059095
  C      -0.979018     34.978258      1.735293
  C      -0.196814     35.049598      0.565606
  H      -0.777714     31.873574     -0.610586
  H       0.461742     33.962693     -1.197299
  H      -2.302191     33.778764      2.965075
  H      -1.038725     35.854084      2.400521
  C       0.615495     36.270987      0.260380
  Cl      2.292462     36.134203      0.968957
  H       0.170350     37.185661      0.694806
  H       0.753247     36.417119     -0.827425
  C      -0.978830     31.092211      3.768705
  C      -0.209776     18.816051      0.354538
  C      -0.365356     19.180739      3.232124
  C       0.072821     20.330190      2.354139
  H       0.530871     18.580600      3.522624
  H      -0.791106     19.558683      4.184123
  C       0.122200     20.162512      0.955294
  H      -0.552228     18.930579     -0.694485
  H       0.731218     18.219802      0.297881
  C       0.532283     21.243867      0.155651
  C       0.447380     21.566945      2.903458
  C       0.880459     22.643083      2.107036
  C       0.928794     22.480095      0.695829
  H       0.574049     21.106533     -0.937825
  H       0.396221     21.709508      3.995162
  C       1.297358     23.910463      2.765935
  C       2.355604     23.928180      3.698963
  C       0.652428     25.130709      2.480017
  C       1.058072     26.324706      3.088596
  C       2.114805     26.343213      4.020866
  C       2.757242     25.122638      4.311126
  H       3.593837     25.109502      5.028477
  H       2.889143     22.991386      3.920798
  H      -0.192273     25.143666      1.773973
  H       0.535702     27.259622      2.837736
  C       2.522395     27.620903      4.746757
  C       0.883595     29.413495      4.176863
  C       1.291963     31.186922      2.604619
  C       0.417063     30.556661      3.510146
  H      -1.315807     30.747851      4.767136
  H      -0.930134     32.195564      3.813865
  C       2.180083     28.888984      3.999136
  C       3.077211     29.564577      3.125897
  C       2.586537     30.696404      2.428250
  H       0.969278     32.081766      2.052993
  H       3.257508     31.210149      1.724047
  H       0.215691     28.909584      4.895542
  H       3.601527     27.576153      4.994150
  H       1.987219     27.636828      5.722245
  C       4.530292     29.257470      3.013120
  C       5.092198     27.960157      2.951592
  C       6.485204     27.782774      2.930265
  C       7.365735     28.880429      2.928950
  C       6.814054     30.179600      2.922311
  C       5.426986     30.348931      2.990273
  H       4.439181     27.076726      2.908859
  H       6.896598     26.759980      2.912503
  H       5.025576     31.371693      3.056759
  C       5.636927     20.660629     -0.394512
  C       5.083694     22.018253     -0.008388
  H       5.600105     20.554684     -1.500088
  H       6.708593     20.574426     -0.122308
  C       5.791380     22.991156      0.746533
  C       5.145989     24.216646      1.032932
  C       3.809753     24.446359      0.683329
  C       3.755577     22.285225     -0.376622
  C       3.080960     23.455838     -0.001805
  H       3.200586     21.503912     -0.920399
  H       5.695993     24.981679      1.602238
  H       3.317542     25.383917      0.985973
  C       1.576584     23.525411     -0.205212
  H       1.319410     23.300937     -1.260546
  H       1.210232     24.545340      0.012243
  C       7.159468     22.739713      1.269927
  C       7.447156     21.564418      2.002298
  C       8.736550     21.300827      2.471069
  C       9.791771     22.205543      2.238195
  C       9.502257     23.393884      1.542299
  C       8.209467     23.658733      1.065195
  H       6.642303     20.844832      2.215191
  H       8.929400     20.371434      3.027599
  H      10.310434     24.117408      1.346805
  H       8.014579     24.578325      0.491600
  C      11.188176     21.897412      2.747005
  C      11.285730     22.038310      4.257802
  H      11.911528     22.589837      2.271155
  H      11.467217     20.874173      2.432360
  C      11.428491     23.331544      4.794333
  C      11.449868     23.570433      6.172272
  C      11.313764     22.484617      7.066135
  C      11.163013     21.194414      6.545255
  C      11.155024     20.945777      5.154379
  C      10.999743     19.539481      4.689715
  H      11.081232     20.337972      7.233525
  H      11.524196     24.185151      4.102812
  C      11.978523     18.908427      3.891225
  C      11.810606     17.588143      3.458501
  C      10.665281     16.850703      3.817366
  C       9.696255     17.469073      4.630862
  C       9.863702     18.789268      5.065001
  H      12.891506     19.460624      3.621216
  H      12.583504     17.116474      2.831246
  H       8.791987     16.909225      4.917424
  H       9.093196     19.264841      5.691133
  C      10.459140     15.457076      3.305437
  Cl      9.566386     15.464172      1.715406
  H       9.848850     14.848336      3.998783
  H      11.418559     14.938784      3.119188
  C      11.382397     22.779008      8.551009
  C      12.463687     23.798143      8.841398
  H      11.536639     21.852430      9.138518
  H      10.398536     23.195314      8.877234
  C      12.611746     24.872698      7.935090
  C      11.657154     24.944761      6.764260
  H      12.011786     25.665756      6.000757
  H      10.675427     25.335240      7.126063
  C      13.341842     23.708323      9.933404
  C      14.361177     24.651926     10.116902
  C      14.546995     25.708144      9.197998
  C      13.646196     25.795831      8.111858
  H      13.775081     26.585989      7.357216
  H      15.022726     24.563714     10.991164
  H      13.230756     22.880340     10.651773
  C      15.663159     26.678951      9.319730
  C      16.842124     26.392423     10.040109
  C      17.890304     27.318734     10.075331
  C      15.591120     27.922740      8.655258
  C      16.644977     28.842840      8.642749
  C      17.823121     28.538567      9.375576
  H      18.803830     27.081820     10.643890
  H      16.957410     25.426985     10.553664
  H      14.669967     28.185755      8.120714
  C      18.978320     29.489176      9.427673
  Cl     18.648624     30.918747     10.524819
  H      19.217467     29.928352      8.440475
  H      19.886021     29.003555      9.830519
  C      16.533872     30.138989      7.849705
  C      15.233696     30.305640      7.101660
  H      17.382240     30.177217      7.129862
  H      16.696271     30.993525      8.540122
  C      14.997833     29.628439      5.886624
  C      13.767923     29.732019      5.224124
  C      12.726169     30.531763      5.746291
  C      12.964069     31.203075      6.966537
  C      14.190804     31.088151      7.631058
  H      15.798086     29.008717      5.450921
  C      11.443606     30.716057      5.022627
  C      10.788780     29.656611      4.354958
  C      10.849196     31.996679      4.981727
  C       9.584390     29.857719      3.656442
  C       9.016041     31.151650      3.617931
  C       9.653764     32.206238      4.290889
  H      11.220100     28.643095      4.402808
  H      11.350057     32.841541      5.477316
  H       9.206476     33.212627      4.262154
  C       7.740010     31.368289      2.844499
  H       7.227216     32.291443      3.181263
  H       7.998934     31.541906      1.771335
  C       8.874999     28.732264      2.923475
  H       9.226906     28.730827      1.862865
  H       9.173686     27.745970      3.334064
  H      14.342202     31.611115      8.588611
  H      12.162181     31.812453      7.409966
  H      13.622180     29.217670      4.261650
324
Coordinates from ORCA-job input E -9763.437239052042
  C      -2.705276      9.036935      2.196584
  C      -3.998173      9.190559      2.740167
  C      -4.721014      8.085291      3.201830
  C      -4.171595      6.790345      3.138336
  C      -2.868237      6.636611      2.624528
  C      -2.146361      7.741952      2.159536
  H      -1.125764      7.604750      1.770548
  H      -2.411698      5.634460      2.597830
  H      -4.450226     10.193680      2.768309
  H      -5.734250      8.226199      3.609940
  C      -4.935112      5.607877      3.654384
  Cl     -4.570908      5.296216      5.413956
  H      -4.669407      4.678227      3.116744
  H      -6.028360      5.762996      3.587666
  C      -1.018529     11.521163     -0.141396
  C      -0.766845     12.604659      0.718186
  C      -1.630725     10.333581      0.293856
  C      -1.098497     12.487702      2.083237
  C      -1.979738     10.224249      1.667248
  H      -0.758276     11.621442     -1.208448
  C      -1.693933     11.297157      2.532830
  H      -1.953108     11.194081      3.599141
  C      -2.072697      9.296832     -0.730943
  C      -3.578150      9.397603     -0.917511
  H      -1.803864      8.268303     -0.424724
  H      -1.550565      9.496631     -1.689443
  C      -4.460564      8.371329     -0.535142
  C      -5.841619      8.595568     -0.539874
  C      -6.388915      9.852391     -0.886533
  C      -5.509430     10.874269     -1.330867
  C      -4.129786     10.609429     -1.357867
  H      -4.063102      7.408656     -0.178470
  H      -6.521295      7.800692     -0.196507
  H      -3.450025     11.421175     -1.662774
  C      -7.853899     10.059348     -0.734808
  C      -8.771395      9.174766     -1.342362
  C     -10.151103      9.342560     -1.176896
  C     -10.660504     10.400869     -0.400038
  C      -8.368994     11.110241      0.058302
  C      -9.748540     11.276427      0.221848
  H      -8.388870      8.353646     -1.967644
  H     -10.848928      8.642556     -1.663237
  H      -7.674222     11.792560      0.572057
  H     -10.127927     12.094961      0.853802
  C     -12.137051     10.562924     -0.198203
  Cl    -12.708504      9.675918      1.289849
  H     -12.715986     10.149628     -1.045368
  H     -12.419764     11.622367     -0.051584
  C      -0.849877     13.644292      3.024082
  C       0.258633     14.568950      2.582255
  H      -0.660164     13.272498      4.052150
  H      -1.780455     14.258199      3.100917
  C      -0.219467     13.907338      0.188493
  C       0.556988     14.705455      1.209944
  H      -1.084356     14.525024     -0.153580
  H       0.396799     13.733542     -0.717533
  C       0.978069     15.342605      3.511315
  C       1.952019     16.256467      3.096754
  C       1.540975     15.620351      0.803987
  C       2.243460     16.426217      1.724361
  H       1.735979     15.739565     -0.273611
  H       0.766804     15.223802      4.586203
  H       2.512638     16.833208      3.847654
  C       3.194296     17.461066      1.249949
  C       3.934564     17.299859      0.055980
  C       4.724818     18.337226     -0.452250
  C       4.813211     19.580545      0.206099
  C       4.115527     19.725000      1.422063
  H       3.887648     16.342810     -0.485235
  H       5.273383     18.185921     -1.395979
  C       3.326249     18.689741      1.933362
  H       4.138498     20.690087      1.949586
  H       2.750952     18.867217      2.853537
  C      -5.955488     12.267144     -1.730900
  C      -5.290398     13.362080     -0.909239
  H      -7.059107     12.359505     -1.671306
  H      -5.703123     12.436334     -2.800379
  C      -4.794868     13.112383      0.386037
  C      -4.104660     14.095764      1.101628
  C      -5.104808     14.654739     -1.439095
  C      -4.427802     15.646926     -0.717512
  C      -3.896030     15.385271      0.566163
  H      -4.894290     12.107701      0.822530
  H      -3.675526     13.836141      2.079519
  H      -5.483534     14.884514     -2.448276
  H      -4.301049     16.647933     -1.158827
  C      -3.081206     16.399755      1.285935
  C      -2.100031     17.113833      0.563466
  C      -1.250896     18.054363      1.163149
  C      -3.244395     16.689509      2.669062
  C      -2.351388     17.592616      3.271596
  C      -1.346719     18.259577      2.555692
  H      -1.991437     16.913430     -0.514693
  H      -2.477165     17.820610      4.343358
  C      -4.472385     16.268666      3.465841
  C      -5.483346     17.401503      3.415513
  H      -4.195512     16.061062      4.519038
  H      -4.925601     15.347523      3.055611
  C      -5.810775     18.167307      4.545286
  C      -6.630156     19.299466      4.419176
  C      -7.140621     19.702343      3.170734
  C      -6.833956     18.920122      2.021714
  C      -6.024917     17.786176      2.174484
  H      -5.406211     17.891127      5.532171
  H      -6.868277     19.904169      5.308028
  H      -5.762764     17.208715      1.274800
  C      -7.882449     20.989500      3.055530
  C      -9.222342     21.059192      2.629775
  C      -9.846613     22.300081      2.433687
  C      -9.152410     23.501998      2.662918
  C      -7.821206     23.433204      3.121659
  C      -7.201151     22.198696      3.321279
  H      -9.778036     20.129131      2.435145
  H      -6.149849     22.156741      3.642536
  H      -7.255821     24.364017      3.284234
  H     -10.891456     22.335625      2.085562
  C      -9.807495     24.832226      2.424699
  Cl     -8.934807     25.823486      1.165125
  H      -9.807156     25.460877      3.336759
  H     -10.850028     24.716800      2.073677
  C      -7.239596     19.351174      0.623005
  C      -6.760216     20.751856      0.288204
  H      -8.341622     19.314037      0.497012
  H      -6.824584     18.615710     -0.099254
  C      -5.450107     21.166649      0.603265
  C      -5.062352     22.502194      0.438999
  C      -5.969889     23.463374     -0.057944
  C      -7.640933     21.696290     -0.267109
  C      -7.255696     23.028169     -0.442610
  H      -4.736288     20.439719      1.023477
  H      -4.040209     22.810504      0.710868
  H      -8.671163     21.393226     -0.511730
  H      -7.988930     23.765994     -0.798860
  C      -5.642295     24.907156     -0.110488
  C      -5.040371     25.550428      0.988642
  C      -4.828561     26.939602      1.009483
  C      -5.996855     25.694251     -1.227639
  C      -5.753951     27.070081     -1.231538
  C      -5.182701     27.712163     -0.117176
  H      -4.774183     24.953547      1.876184
  H      -6.449096     25.212126     -2.107359
  H      -6.020473     27.668033     -2.118047
  C      -4.297007     27.619798      2.252158
  C      -3.586023     28.926637      1.984459
  C      -3.898293     29.677062      0.832028
  C      -4.985454     29.209298     -0.105173
  H      -5.944856     29.693499      0.200615
  H      -4.793543     29.579842     -1.133767
  H      -3.633810     26.931280      2.816002
  H      -5.159064     27.817475      2.934780
  C      -2.635303     29.433968      2.886245
  C      -3.213951     30.880036      0.602684
  C      -2.264737     31.393414      1.506932
  C      -1.981100     30.663557      2.692643
  H      -2.396333     28.845651      3.788252
  H      -3.438919     31.460897     -0.306387
  C      -1.557018     32.654862      1.153177
  C      -0.777380     32.707710     -0.022821
  C      -0.059771     33.860665     -0.359816
  C      -1.629961     33.813805      1.955951
  C      -0.910465     34.966338      1.619315
  C      -0.106268     35.002665      0.463028
  H      -0.712986     31.811934     -0.658820
  H       0.565433     33.870557     -1.266665
  H      -2.269596     33.811041      2.851631
  H      -0.968722     35.856036      2.266138
  C       0.732055     36.204468      0.149884
  Cl      2.396098     36.049703      0.884059
  H       0.297192     37.133636      0.563554
  H       0.887165     36.330645     -0.938137
  C      -0.956772     31.119502      3.721941
  C      -0.238168     18.836318      0.357315
  C      -0.375902     19.193290      3.234751
  C       0.046006     20.349175      2.356947
  H       0.526574     18.596791      3.512427
  H      -0.793461     19.564217      4.193066
  C       0.085635     20.185403      0.957118
  H      -0.583940     18.947167     -0.690934
  H       0.707258     18.247302      0.300041
  C       0.481450     21.272133      0.157130
  C       0.416462     21.586692      2.906363
  C       0.835775     22.668142      2.109551
  C       0.874025     22.509716      0.697767
  H       0.517177     21.137666     -0.936912
  H       0.374236     21.725666      3.998956
  C       1.259616     23.933128      2.768131
  C       2.321270     23.945620      3.697318
  C       0.619015     25.156902      2.486162
  C       1.035799     26.349272      3.091250
  C       2.099208     26.362745      4.016877
  C       2.733292     25.137833      4.306752
  H       3.574482     25.120031      5.018611
  H       2.848779     23.005587      3.919959
  H      -0.232747     25.173104      1.787973
  H       0.518721     27.287427      2.841734
  C       2.520347     27.639047      4.738658
  C       0.898788     29.440340      4.154330
  C       1.323746     31.202276      2.574518
  C       0.440918     30.581443      3.478729
  H      -1.299463     30.788115      4.722861
  H      -0.909028     32.223498      3.752604
  C       2.193558     28.908820      3.986806
  C       3.099387     29.575374      3.114464
  C       2.617130     30.705129      2.407884
  H       1.007038     32.092701      2.012748
  H       3.293955     31.213462      1.705320
  H       0.222895     28.939915      4.868032
  H       3.598732     27.584017      4.987961
  H       1.984629     27.665197      5.713704
  C       4.550711     29.256434      3.006639
  C       5.101962     27.954179      2.957975
  C       6.493365     27.763654      2.944773
  C       7.384818     28.854942      2.940743
  C       6.843863     30.159119      2.922916
  C       5.457372     30.340139      2.982220
  H       4.442158     27.075244      2.924470
  H       6.892344     26.734711      2.932749
  H       5.065267     31.366827      3.043305
  C       5.594190     20.734779     -0.405048
  C       5.030358     22.087854     -0.016715
  H       5.554429     20.630298     -1.510696
  H       6.667385     20.657300     -0.136327
  C       5.730442     23.065477      0.739705
  C       5.076736     24.287437      1.026320
  C       3.737968     24.505381      0.675637
  C       3.700041     22.343235     -0.383521
  C       3.016134     23.507157     -0.007862
  H       3.151107     21.556756     -0.926167
  H       5.619957     25.059311      1.597061
  H       3.237077     25.437660      0.978468
  C       1.509913     23.561251     -0.205975
  H       1.250942     23.332924     -1.260068
  H       1.135513     24.578332      0.010809
  C       7.098431     22.819213      1.263972
  C       7.391927     21.640401      1.988200
  C       8.682798     21.378822      2.452699
  C       9.733618     22.289599      2.224217
  C       9.437446     23.483364      1.540844
  C       8.142819     23.746175      1.067889
  H       6.590609     20.915691      2.197034
  H       8.880835     20.445502      3.001079
  H      10.241805     24.212675      1.351021
  H       7.942501     24.670830      0.504299
  C      11.133135     21.978806      2.721079
  C      11.235372     22.087103      4.233968
  H      11.851076     22.685110      2.257545
  H      11.415933     20.964211      2.383347
  C      11.377861     23.369458      4.795940
  C      11.405293     23.580534      6.178060
  C      11.271394     22.477161      7.050553
  C      11.118435     21.197719      6.504556
  C      11.107144     20.976709      5.109025
  C      10.949198     19.579990      4.616972
  H      11.037697     20.327868      7.175934
  H      11.471605     24.236588      4.121193
  C      11.921537     18.967005      3.796675
  C      11.750219     17.656704      3.335879
  C      10.607972     16.911185      3.687558
  C       9.645804     17.510890      4.522872
  C       9.816588     18.821119      4.984992
  H      12.832623     19.525000      3.532373
  H      12.517934     17.199709      2.691566
  H       8.744198     16.944499      4.805036
  H       9.050012     19.282416      5.626509
  C      10.397211     15.529702      3.145197
  Cl      9.482830     15.573298      1.568215
  H       9.797716     14.903124      3.832076
  H      11.355163     15.018428      2.933663
  C      11.344497     22.742136      8.540702
  C      12.426600     23.754937      8.848570
  H      11.498815     21.804242      9.109853
  H      10.361656     23.153136      8.876998
  C      12.574061     24.846485      7.962331
  C      11.616833     24.942665      6.795667
  H      11.970170     25.677999      6.044963
  H      10.636547     25.327393      7.167773
  C      13.306682     23.644433      9.937177
  C      14.327787     24.583152     10.135333
  C      14.514996     25.654397      9.234213
  C      13.610971     25.763694      8.152896
  H      13.738716     26.566325      7.411374
  H      14.990987     24.477073     11.006325
  H      13.195776     22.804250     10.641254
  C      15.634459     26.618897      9.369151
  C      16.810488     26.321296     10.090038
  C      17.862277     27.242973     10.137122
  C      15.570717     27.868234      8.714817
  C      16.628290     28.783815      8.713248
  C      17.802436     28.469644      9.448445
  H      18.772575     26.997228     10.707110
  H      16.921501     25.350816     10.594953
  H      14.653532     28.141122      8.178312
  C      18.961587     29.414852      9.512596
  Cl     18.633680     30.837969     10.618424
  H      19.206575     29.859759      8.529313
  H      19.865458     28.922049      9.915329
  C      16.525755     30.083931      7.926786
  C      15.233597     30.255632      7.165825
  H      17.381295     30.126197      7.215612
  H      16.681016     30.935113      8.622896
  C      15.004194     29.572444      5.952615
  C      13.781375     29.680000      5.277961
  C      12.740153     30.489961      5.785261
  C      12.971763     31.168104      7.002882
  C      14.191495     31.049135      7.679808
  H      15.804076     28.944616      5.527957
  C      11.464598     30.677350      5.050118
  C      10.806586     29.617488      4.385386
  C      10.880196     31.962025      4.995844
  C       9.608155     29.822416      3.677063
  C       9.050618     31.121229      3.625533
  C       9.691398     32.175767      4.295305
  H      11.229452     28.600649      4.444139
  H      11.383792     32.806819      5.488811
  H       9.252154     33.185353      4.256358
  C       7.780693     31.340733      2.841904
  H       7.273096     32.270453      3.168248
  H       8.047512     31.504254      1.769102
  C       8.893777     28.696328      2.946791
  H       9.252871     28.684976      1.888634
  H       9.182446     27.710676      3.365949
  H      14.338006     31.578524      8.634608
  H      12.170199     31.785730      7.435406
  H      13.641443     29.160341      4.317451
324
Coordinates from ORCA-job input E -9763.437253645963
  C      -2.698723      9.050746      2.184651
  C      -3.993082      9.203657      2.724825
  C      -4.717432      8.097664      3.182383
  C      -4.167634      6.802817      3.118893
  C      -2.862511      6.649882      2.609435
  C      -2.139318      7.755972      2.148278
  H      -1.117357      7.619729      1.762551
  H      -2.405436      5.647942      2.583952
  H      -4.445182     10.206658      2.752855
  H      -5.732014      8.237644      3.587499
  C      -4.933648      5.619471      3.629603
  Cl     -4.576400      5.303783      5.389759
  H      -4.666277      4.690845      3.090990
  H      -6.026501      5.775637      3.558829
  C      -1.009669     11.537920     -0.145741
  C      -0.758621     12.618725      0.717354
  C      -1.621558     10.349443      0.286029
  C      -1.091210     12.498729      2.081559
  C      -1.971552     10.237535      1.659058
  H      -0.749385     11.641065     -1.212509
  C      -1.687297     11.307731      2.527420
  H      -1.949013     11.202531      3.592937
  C      -2.064399      9.315864     -0.741375
  C      -3.570900      9.410583     -0.922333
  H      -1.790057      8.287059     -0.440746
  H      -1.546797      9.521859     -1.701061
  C      -4.446609      8.376622     -0.545447
  C      -5.828799      8.594046     -0.542488
  C      -6.384137      9.850648     -0.876946
  C      -5.511518     10.880321     -1.316588
  C      -4.130593     10.622897     -1.351176
  H      -4.043101      7.413042     -0.198171
  H      -6.502688      7.792662     -0.202903
  H      -3.456386     11.440450     -1.652934
  C      -7.849144     10.048615     -0.715309
  C      -8.766991      9.164597     -1.323141
  C     -10.146264      9.324694     -1.146591
  C     -10.655089     10.374936     -0.358394
  C      -8.363862     11.093223      0.086323
  C      -9.742890     11.252176      0.260624
  H      -8.385371      8.350487     -1.958132
  H     -10.844206      8.623712     -1.631380
  H      -7.668826     11.778822      0.595456
  H     -10.121352     12.064574      0.901014
  C     -12.130891     10.528468     -0.143838
  Cl    -12.685155      9.630043      1.344041
  H     -12.714454     10.117029     -0.988737
  H     -12.417481     11.585690      0.011074
  C      -0.845521     13.653340      3.025956
  C       0.262673     14.579166      2.587112
  H      -0.655695     13.279746      4.053308
  H      -1.777069     14.265595      3.102417
  C      -0.212908     13.922995      0.191351
  C       0.562455     14.717888      1.215467
  H      -1.078664     14.539823     -0.148864
  H       0.403653     13.752018     -0.715045
  C       0.980133     15.351404      3.518781
  C       1.953671     16.266619      3.106815
  C       1.547172     15.632292      0.812438
  C       2.245970     16.437951      1.734814
  H       1.743299     15.754590     -0.264638
  H       0.768098     15.230003      4.593244
  H       2.511870     16.844125      3.858880
  C       3.195203     17.473408      1.261390
  C       3.936981     17.310971      0.068838
  C       4.723923     18.349123     -0.441308
  C       4.806974     19.593832      0.214073
  C       4.105356     19.741267      1.427629
  H       3.893845     16.351831     -0.469029
  H       5.275096     18.197002     -1.383380
  C       3.320187     18.704468      1.941507
  H       4.122029     20.709492      1.950647
  H       2.741476     18.882907      2.859329
  C      -5.967614     12.272491     -1.709434
  C      -5.298433     13.369320     -0.894364
  H      -7.070856     12.359672     -1.635843
  H      -5.729570     12.443444     -2.781933
  C      -4.809099     13.124869      0.404080
  C      -4.116996     14.108666      1.117375
  C      -5.105360     14.657994     -1.430543
  C      -4.426787     15.650979     -0.711744
  C      -3.901166     15.394519      0.575839
  H      -4.915839     12.122813      0.844679
  H      -3.695433     13.851334      2.098999
  H      -5.479218     14.884271     -2.442330
  H      -4.294699     16.649191     -1.157213
  C      -3.084528     16.409768      1.293551
  C      -2.103741     17.124320      0.569880
  C      -1.252788     18.062917      1.169915
  C      -3.245091     16.698925      2.677334
  C      -2.350475     17.600941      3.279803
  C      -1.345853     18.266371      2.563051
  H      -1.998178     16.927426     -0.509271
  H      -2.474694     17.827940      4.351943
  C      -4.469792     16.274577      3.478034
  C      -5.481450     17.406469      3.432486
  H      -4.188923     16.065322      4.529930
  H      -4.922797     15.353828      3.066712
  C      -5.805164     18.173506      4.562662
  C      -6.623950     19.306530      4.437703
  C      -7.136528     19.708952      3.189635
  C      -6.832608     18.925672      2.040994
  C      -6.025303     17.790536      2.192840
  H      -5.399078     17.897050      5.548875
  H      -6.859484     19.912132      5.326612
  H      -5.765704     17.212304      1.292744
  C      -7.878334     20.996069      3.073850
  C      -9.218762     21.065413      2.650309
  C      -9.843325     22.306340      2.453304
  C      -9.148477     23.508089      2.679216
  C      -7.815870     23.439949      3.134837
  C      -7.195694     22.206012      3.334865
  H      -9.775252     20.135256      2.458429
  H      -6.143808     22.164042      3.654309
  H      -7.249558     24.370412      3.295700
  H     -10.889037     22.341709      2.107831
  C      -9.803293     24.837624      2.439040
  Cl     -8.942289     25.816460      1.160518
  H      -9.789779     25.474142      3.345441
  H     -10.849704     24.723694      2.099527
  C      -7.237938     19.355507      0.642460
  C      -6.759179     20.755033      0.303671
  H      -8.340183     19.317640      0.517252
  H      -6.822795     18.619116     -0.078788
  C      -5.448017     21.169849      0.614935
  C      -5.059168     22.504214      0.443819
  C      -5.967301     23.463180     -0.054624
  C      -7.641473     21.698552     -0.250836
  C      -7.255549     23.029059     -0.432375
  H      -4.733944     20.444073      1.036247
  H      -4.036338     22.814538      0.712315
  H      -8.672648     21.395067     -0.491093
  H      -7.988183     23.767887     -0.787889
  C      -5.637304     24.905903     -0.116523
  C      -5.036953     25.553414      0.980316
  C      -4.825372     26.942301      0.994883
  C      -5.987134     25.686247     -1.239774
  C      -5.743767     27.061792     -1.250005
  C      -5.177319     27.708968     -0.136251
  H      -4.770904     24.959918      1.870154
  H      -6.434702     25.198766     -2.118950
  H      -6.008558     27.655728     -2.139729
  C      -4.300624     27.629725      2.236460
  C      -3.586534     28.933466      1.963576
  C      -3.895702     29.677210      0.806141
  C      -4.983295     29.206618     -0.128967
  H      -5.942989     29.690412      0.175963
  H      -4.792456     29.574229     -1.158827
  H      -3.640937     26.944279      2.808360
  H      -5.167613     27.832123      2.911395
  C      -2.637556     29.444469      2.864420
  C      -3.208099     30.876386      0.569717
  C      -2.260116     31.394289      1.473532
  C      -1.981929     30.671987      2.665467
  H      -2.403423     28.862339      3.771728
  H      -3.429188     31.451287     -0.344244
  C      -1.547421     32.650964      1.112136
  C      -0.758058     32.686814     -0.058262
  C      -0.024896     33.828984     -0.398417
  C      -1.616430     33.817768      1.903288
  C      -0.880847     34.959556      1.563709
  C      -0.062508     34.976629      0.417146
  H      -0.700406     31.786471     -0.688575
  H       0.611053     33.822309     -1.297861
  H      -2.265284     33.831840      2.792350
  H      -0.933067     35.853755      2.204984
  C       0.797386     36.163817      0.106126
  Cl      2.455058     35.981326      0.847549
  H       0.376689     37.100464      0.517631
  H       0.959059     36.286341     -0.981403
  C      -0.959534     31.132568      3.693750
  C      -0.236252     18.843990      0.367224
  C      -0.370105     19.197032      3.239934
  C       0.041173     20.359025      2.364696
  H       0.536086     18.599628      3.502459
  H      -0.778080     19.560389      4.205109
  C       0.078186     20.196912      0.964389
  H      -0.572567     18.947380     -0.684688
  H       0.711928     18.258450      0.324273
  C       0.469387     21.285524      0.165337
  C       0.402877     21.598532      2.915014
  C       0.817047     22.683663      2.119602
  C       0.857404     22.524203      0.707235
  H       0.509310     21.150971     -0.928538
  H       0.359514     21.736239      4.007766
  C       1.238517     23.946639      2.780757
  C       2.301921     23.958269      3.707179
  C       0.596003     25.169932      2.501387
  C       1.016528     26.362424      3.102763
  C       2.086108     26.376134      4.022075
  C       2.718179     25.150505      4.313039
  H       3.562447     25.132579      5.021231
  H       2.829467     23.017588      3.928873
  H      -0.261435     25.184235      1.809645
  H       0.499712     27.301099      2.854162
  C       2.514262     27.653456      4.737912
  C       0.894214     29.456297      4.146845
  C       1.324039     31.203825      2.552479
  C       0.439080     30.592719      3.461009
  H      -1.305882     30.807952      4.695697
  H      -0.911334     32.236915      3.716464
  C       2.187197     28.919881      3.981557
  C       3.094190     29.576416      3.104297
  C       2.616097     30.702451      2.389886
  H       1.009689     32.089543      1.982309
  H       3.294129     31.205415      1.684546
  H       0.217454     28.962352      4.864294
  H       3.594154     27.596304      4.979113
  H       1.985678     27.685861      5.716687
  C       4.543423     29.248615      2.997515
  C       5.093198     27.945158      2.958196
  C       6.485401     27.754685      2.943699
  C       7.376067     28.842731      2.933157
  C       6.836848     30.146041      2.903920
  C       5.451550     30.330071      2.962032
  H       4.434076     27.065409      2.931608
  H       6.887678     26.728976      2.938497
  H       5.062195     31.358370      3.012917
  C       5.584578     20.748635     -0.396923
  C       5.015179     22.098243     -0.007886
  H       5.546830     20.645291     -1.502784
  H       6.657388     20.674439     -0.125718
  C       5.712868     23.074446      0.750448
  C       5.057518     24.294264      1.034793
  C       3.720975     24.514717      0.683558
  C       3.684521     22.353720     -0.376464
  C       2.999690     23.517088      0.000371
  H       3.136462     21.567416     -0.920517
  H       5.595138     25.062098      1.608644
  H       3.221107     25.447007      0.989353
  C       1.493692     23.574372     -0.196940
  H       1.234076     23.346243     -1.250985
  H       1.123231     24.592985      0.019268
  C       7.084164     22.834629      1.271868
  C       7.386369     21.657765      1.995897
  C       8.680168     21.403211      2.456910
  C       9.726011     22.319541      2.225572
  C       9.419972     23.514324      1.548242
  C       8.121911     23.769990      1.078648
  H       6.589284     20.929615      2.208468
  H       8.885508     20.469517      3.002209
  H      10.219302     24.248937      1.357447
  H       7.913145     24.698123      0.523814
  C      11.129292     22.011849      2.715870
  C      11.237075     22.095689      4.230340
  H      11.840959     22.730032      2.260875
  H      11.417499     21.004873      2.361098
  C      11.363969     23.369804      4.813959
  C      11.397086     23.556718      6.199522
  C      11.282935     22.437529      7.054153
  C      11.144070     21.166012      6.486991
  C      11.128179     20.968887      5.087699
  C      10.987036     19.578484      4.573404
  H      11.076617     20.283916      7.143681
  H      11.445488     24.249331      4.153893
  C      11.957762     18.996772      3.728423
  C      11.800675     17.693231      3.244111
  C      10.675112     16.923028      3.596303
  C       9.715267     17.491067      4.455962
  C       9.871403     18.794834      4.940992
  H      12.856762     19.573832      3.463885
  H      12.566924     17.261223      2.581035
  H       8.825982     16.905669      4.738512
  H       9.104751     19.231371      5.599528
  C      10.478461     15.549262      3.029280
  Cl      9.535624     15.609178      1.469657
  H       9.902225     14.898274      3.713368
  H      11.441458     15.059891      2.790590
  C      11.363712     22.679141      8.548374
  C      12.432455     23.703347      8.866120
  H      11.535067     21.734503      9.101076
  H      10.377218     23.070326      8.897895
  C      12.558515     24.810147      7.995826
  C      11.593011     24.910770      6.837572
  H      11.931319     25.661668      6.096699
  H      10.609519     25.275176      7.221798
  C      13.322418     23.590098      9.946635
  C      14.333021     24.539671     10.149280
  C      14.500643     25.624880      9.260644
  C      13.585065     25.737777      8.190073
  H      13.694924     26.551090      7.457435
  H      15.004414     24.429276     11.013410
  H      13.228996     22.738944     10.639931
  C      15.613601     26.596369      9.394298
  C      16.795638     26.301116     10.105690
  C      17.843051     27.227456     10.153340
  C      15.540461     27.849375      8.747648
  C      16.594185     28.769873      8.745248
  C      17.773641     28.458156      9.472936
  H      18.757328     26.982173     10.717117
  H      16.915697     25.328492     10.604430
  H      14.620127     28.123340      8.217073
  C      18.928861     29.408328      9.536581
  Cl     18.599137     30.825098     10.649942
  H      19.167261     29.858493      8.553982
  H      19.836533     28.917477      9.933035
  C      16.483953     30.071848      7.964006
  C      15.193153     30.239628      7.199669
  H      17.341142     30.123091      7.255412
  H      16.631156     30.921749      8.663434
  C      14.968439     29.552946      5.987709
  C      13.749695     29.660979      5.306577
  C      12.707323     30.474634      5.805649
  C      12.934023     31.156914      7.021626
  C      14.150135     31.037298      7.705441
  H      15.769742     28.923800      5.567703
  C      11.438910     30.664567      5.058967
  C      10.785626     29.603996      4.392280
  C      10.856312     31.949351      4.995295
  C       9.594366     29.806699      3.673552
  C       9.038248     31.103995      3.611030
  C       9.673741     32.160967      4.282888
  H      11.205613     28.587342      4.458249
  H      11.355635     32.795813      5.489727
  H       9.235737     33.170754      4.236202
  C       7.776368     31.322975      2.815401
  H       7.269204     32.257412      3.128518
  H       8.051407     31.473631      1.742874
  C       8.883891     28.679954      2.943943
  H       9.246773     28.665798      1.887094
  H       9.168953     27.695088      3.367228
  H      14.294221     31.572535      8.657362
  H      12.131540     31.776932      7.448993
  H      13.613862     29.137851      4.347356
324
Coordinates from ORCA-job input E -9763.437365277650
  C      -2.674346      9.057106      2.194317
  C      -3.968921      9.205814      2.735043
  C      -4.688111      8.098029      3.196368
  C      -4.133094      6.805354      3.135278
  C      -2.827963      6.656524      2.624400
  C      -2.109882      7.764472      2.159742
  H      -1.088031      7.631347      1.772677
  H      -2.366972      5.656358      2.600311
  H      -4.424877     10.207070      2.761735
  H      -5.703049      8.234804      3.601666
  C      -4.893603      5.620151      3.649763
  Cl     -4.534448      5.311600      5.410874
  H      -4.621925      4.691106      3.114082
  H      -5.987186      5.771086      3.578916
  C      -0.998625     11.545469     -0.144761
  C      -0.750751     12.629448      0.715219
  C      -1.604983     10.355615      0.290734
  C      -1.080141     12.511172      2.080375
  C      -1.952522     10.245496      1.664588
  H      -0.741892     11.648051     -1.212442
  C      -1.670536     11.318547      2.530383
  H      -1.930041     11.214832      3.596539
  C      -2.043234      9.316768     -0.733331
  C      -3.550765      9.401875     -0.910558
  H      -1.762122      8.290621     -0.430025
  H      -1.529513      9.524005     -1.694763
  C      -4.418677      8.362416     -0.530507
  C      -5.802116      8.571467     -0.521999
  C      -6.366266      9.824845     -0.853599
  C      -5.501842     10.860172     -1.295892
  C      -4.119431     10.611316     -1.335928
  H      -4.007858      7.401776     -0.183765
  H      -6.469851      7.765698     -0.180498
  H      -3.451380     11.433213     -1.639415
  C      -7.831884     10.014031     -0.687298
  C      -8.746463      9.124598     -1.291850
  C     -10.126049      9.276162     -1.109947
  C     -10.638292     10.323000     -0.319489
  C      -8.349833     11.054906      0.117157
  C      -9.729074     11.205200      0.297136
  H      -8.362135      8.311776     -1.926875
  H     -10.821639      8.571837     -1.593242
  H      -7.656863     11.743294      0.625355
  H     -10.110101     12.015353      0.938831
  C     -12.113965     10.467149     -0.098959
  Cl    -12.656264      9.566841      1.392381
  H     -12.698706     10.050653     -0.940519
  H     -12.406999     11.522495      0.056557
  C      -0.837358     13.668893      3.022013
  C       0.267533     14.596811      2.579585
  H      -0.643255     13.296916      4.049242
  H      -1.771200     14.277110      3.100656
  C      -0.209046     13.934239      0.185918
  C       0.565787     14.732879      1.207381
  H      -1.076462     14.549365     -0.153744
  H       0.406940     13.762923     -0.720775
  C       0.985492     15.371448      3.508928
  C       1.957009     16.287448      3.093856
  C       1.547205     15.649495      0.801215
  C       2.246304     16.457563      1.721156
  H       1.741601     15.769790     -0.276305
  H       0.775272     15.251641      4.583889
  H       2.515766     16.866747      3.843927
  C       3.188587     17.498099      1.244854
  C       3.927622     17.340254      0.050154
  C       4.707041     18.383149     -0.462186
  C       4.785393     19.627913      0.193433
  C       4.087440     19.770475      1.409906
  H       3.887990     16.381277     -0.488144
  H       5.255781     18.234656     -1.406244
  C       3.309343     18.729359      1.925577
  H       4.100809     20.738167      1.933240
  H       2.733340     18.903677      2.846029
  C      -5.968111     12.250632     -1.683101
  C      -5.297309     13.349712     -0.872120
  H      -7.071051     12.332381     -1.599028
  H      -5.740653     12.424117     -2.757438
  C      -4.795801     13.106246      0.421928
  C      -4.104899     14.093594      1.131078
  C      -5.116872     14.640510     -1.407789
  C      -4.439274     15.637095     -0.692733
  C      -3.901270     15.381681      0.589635
  H      -4.893198     12.103171      0.862347
  H      -3.672297     13.837935      2.108155
  H      -5.503417     14.866688     -2.414811
  H      -4.315034     16.636438     -1.138552
  C      -3.087818     16.401122      1.304599
  C      -2.112565     17.120018      0.578015
  C      -1.262857     18.061164      1.175651
  C      -3.246962     16.690473      2.688466
  C      -2.352843     17.594600      3.288711
  C      -1.352302     18.263180      2.569241
  H      -2.008617     16.922347     -0.501141
  H      -2.475509     17.822176      4.360864
  C      -4.472576     16.272222      3.490937
  C      -5.479292     17.408836      3.444872
  H      -4.190742     16.063350      4.542604
  H      -4.930618     15.352981      3.081708
  C      -5.793264     18.182009      4.573450
  C      -6.606227     19.318857      4.447987
  C      -7.123968     19.718552      3.201513
  C      -6.829011     18.930179      2.053686
  C      -6.026712     17.791281      2.205881
  H      -5.379629     17.910173      5.557779
  H      -6.836002     19.927767      5.336132
  H      -5.772779     17.209317      1.306833
  C      -7.860949     21.008129      3.084164
  C      -9.204765     21.079426      2.671616
  C      -9.826881     22.321151      2.471922
  C      -9.125587     23.522168      2.683947
  C      -7.790515     23.452246      3.130708
  C      -7.172905     22.217234      3.333391
  H      -9.767083     20.150176      2.492885
  H      -6.119692     22.173570      3.648108
  H      -7.219459     24.381875      3.278765
  H     -10.874687     22.357680      2.133079
  C      -9.781273     24.851666      2.443907
  Cl     -8.927058     25.829425      1.161294
  H      -9.766683     25.489480      3.349467
  H     -10.829104     24.735672      2.109309
  C      -7.241997     19.355472      0.655810
  C      -6.758922     20.751501      0.308692
  H      -8.344984     19.321038      0.536745
  H      -6.833275     18.615147     -0.065159
  C      -5.446900     21.163647      0.619619
  C      -5.053634     22.495961      0.443139
  C      -5.956967     23.455458     -0.063803
  C      -7.637332     21.694785     -0.251672
  C      -7.246533     23.023315     -0.439684
  H      -4.737314     20.438626      1.049895
  H      -4.029207     22.802753      0.707331
  H      -8.670711     21.395270     -0.487135
  H      -7.975242     23.761846     -0.803824
  C      -5.621789     24.897091     -0.132452
  C      -5.023059     25.549822      0.962859
  C      -4.807848     26.938710      0.970149
  C      -5.969992     25.672932     -1.259389
  C      -5.723561     27.047978     -1.276525
  C      -5.155080     27.699684     -0.166432
  H      -4.767418     24.962218      1.859615
  H      -6.425442     25.183330     -2.133310
  H      -5.982279     27.637227     -2.171134
  C      -4.281751     27.631042      2.208679
  C      -3.567804     28.934016      1.931552
  C      -3.874217     29.672357      0.769823
  C      -4.958808     29.197209     -0.166614
  H      -5.918702     29.683333      0.134009
  H      -4.764677     29.559534     -1.197671
  H      -3.621433     26.947063      2.781829
  H      -5.147596     27.835616      2.884286
  C      -2.621828     29.450260      2.832923
  C      -3.186988     30.871609      0.529992
  C      -2.242205     31.393757      1.434212
  C      -1.966446     30.677298      2.629710
  H      -2.388650     28.871808      3.742862
  H      -3.407303     31.442633     -0.386473
  C      -1.529613     32.649909      1.072935
  C      -0.741286     32.686801     -0.098047
  C      -0.008504     33.829290     -0.437174
  C      -1.595904     33.814473      1.867187
  C      -0.859554     34.956145      1.529326
  C      -0.045411     34.975706      0.380058
  H      -0.682821     31.786857     -0.728843
  H       0.622856     33.825669     -1.339847
  H      -2.239104     33.824961      2.760352
  H      -0.911919     35.849723      2.171383
  C       0.816630     36.161335      0.071134
  Cl      2.474666     35.966610      0.809295
  H       0.400893     37.097974      0.487522
  H       0.977316     36.287310     -1.016096
  C      -0.951858     31.149855      3.660572
  C      -0.254654     18.849377      0.369641
  C      -0.379192     19.197686      3.243808
  C       0.024132     20.362213      2.368588
  H       0.530894     18.604517      3.502018
  H      -0.785866     19.558063      4.210633
  C       0.057437     20.202427      0.967983
  H      -0.597806     18.954336     -0.679954
  H       0.696292     18.268702      0.319311
  C       0.441211     21.293923      0.169047
  C       0.383350     21.601992      2.919714
  C       0.792865     22.688692      2.124306
  C       0.827034     22.533158      0.711428
  H       0.474934     21.162042     -0.925371
  H       0.343493     21.737866      4.012810
  C       1.212743     23.953662      2.785496
  C       2.285154     23.967821      3.701711
  C       0.568752     25.176829      2.508525
  C       0.992470     26.370312      3.106570
  C       2.066053     26.385311      4.021373
  C       2.703910     25.160951      4.304868
  H       3.551457     25.143684      5.009119
  H       2.820945     23.029778      3.913488
  H      -0.287397     25.191950      1.815817
  H       0.472111     27.307922      2.861438
  C       2.498209     27.662349      4.736991
  C       0.892880     29.470542      4.129289
  C       1.345089     31.221777      2.544808
  C       0.447992     30.608831      3.440600
  H      -1.303744     30.834002      4.663423
  H      -0.905459     32.254371      3.671675
  C       2.185028     28.929223      3.974955
  C       3.102915     29.583863      3.107043
  C       2.637276     30.716336      2.393905
  H       1.042069     32.114794      1.979019
  H       3.324174     31.218758      1.696829
  H       0.209689     28.981394      4.843831
  H       3.575655     27.598082      4.986664
  H       1.962028     27.700178      5.711436
  C       4.552509     29.252104      3.013876
  C       5.094949     27.946366      2.971606
  C       6.485454     27.747111      2.962900
  C       7.383499     28.830967      2.960786
  C       6.851764     30.138088      2.930885
  C       5.466402     30.329520      2.983297
  H       4.430184     27.071565      2.930310
  H       6.879838     26.717602      2.959325
  H       5.081343     31.359693      3.028809
  C       5.554897     20.787256     -0.419614
  C       4.982486     22.134474     -0.025660
  H       5.512347     20.685427     -1.525412
  H       6.629368     20.717136     -0.154109
  C       5.679773     23.113813      0.730494
  C       5.020740     24.330989      1.019178
  C       3.680316     24.544123      0.674741
  C       3.649005     22.384186     -0.387808
  C       2.960200     23.543326     -0.005769
  H       3.102307     21.596223     -0.930800
  H       5.560600     25.102124      1.589653
  H       3.177266     25.473544      0.982876
  C       1.451821     23.590164     -0.193351
  H       1.187600     23.363022     -1.246483
  H       1.074958     24.605467      0.027939
  C       7.052523     22.878172      1.249447
  C       7.360694     21.698505      1.966179
  C       8.655254     21.448426      2.427215
  C       9.695423     22.372789      2.203841
  C       9.383752     23.569679      1.532643
  C       8.085162     23.820509      1.062159
  H       6.567640     20.964613      2.173500
  H       8.864877     20.512639      2.966814
  H      10.178859     24.310584      1.348651
  H       7.872459     24.749270      0.509927
  C      11.099935     22.069915      2.692379
  C      11.206929     22.134484      4.207706
  H      11.806216     22.800101      2.248276
  H      11.396452     21.070041      2.323975
  C      11.339053     23.401227      4.806329
  C      11.371470     23.572600      6.194068
  C      11.254095     22.443544      7.035088
  C      11.111525     21.178979      6.452842
  C      11.094979     20.997922      5.051475
  C      10.950296     19.613813      4.522196
  H      11.042343     20.289452      7.099207
  H      11.424879     24.287917      4.156409
  C      11.919681     19.037161      3.672159
  C      11.758600     17.738871      3.175057
  C      10.630256     16.968887      3.519015
  C       9.672134     17.531368      4.384218
  C       9.832168     18.829876      4.881801
  H      12.821032     19.613534      3.414161
  H      12.523912     17.310792      2.508391
  H       8.780085     16.946699      4.659355
  H       9.067655     19.261717      5.545796
  C      10.429440     15.601143      2.939248
  Cl      9.483282     15.678577      1.382115
  H       9.852572     14.944987      3.617807
  H      11.390612     15.111662      2.693676
  C      11.335819     22.665859      8.532112
  C      12.408529     23.682265      8.861236
  H      11.505721     21.713544      9.071898
  H      10.350818     23.054810      8.888084
  C      12.539178     24.798563      8.003979
  C      11.572657     24.919123      6.847701
  H      11.914633     25.677757      6.115476
  H      10.591254     25.282935      7.237438
  C      13.299292     23.551028      9.939182
  C      14.315501     24.492162     10.152218
  C      14.487841     25.586851      9.276364
  C      13.571783     25.717811      8.207967
  H      13.685214     26.539525      7.485269
  H      14.987342     24.367954     11.014157
  H      13.202938     22.691153     10.621221
  C      15.606825     26.550350      9.418940
  C      16.786988     26.243653     10.128980
  C      17.838874     27.164818     10.183673
  C      15.540156     27.808176      8.781512
  C      16.598600     28.722928      8.784784
  C      17.776291     28.400018      9.510463
  H      18.751968     26.910887     10.745544
  H      16.901245     25.267572     10.622374
  H      14.621327     28.089629      8.252585
  C      18.935949     29.344062      9.580916
  Cl     18.611013     30.755675     10.702419
  H      19.177836     29.799327      8.601573
  H      19.840567     28.846655      9.976098
  C      16.494371     30.029797      8.010016
  C      15.205957     30.202068      7.242077
  H      17.353580     30.083381      7.304242
  H      16.640309     30.875577      8.714825
  C      14.985280     29.521050      6.026078
  C      13.767469     29.629822      5.342686
  C      12.723008     30.439813      5.843466
  C      12.945673     31.115942      7.063667
  C      14.160371     30.995109      7.749651
  H      15.787942     28.893541      5.606222
  C      11.455125     30.632235      5.095741
  C      10.797801     29.574104      4.427971
  C      10.877933     31.919648      5.033278
  C       9.607418     29.783357      3.707842
  C       9.058301     31.084555      3.645966
  C       9.697313     32.137631      4.319908
  H      11.213256     28.554812      4.494970
  H      11.379965     32.762822      5.530515
  H       9.264334     33.149575      4.273154
  C       7.798781     31.310366      2.847708
  H       7.296167     32.247108      3.161382
  H       8.077428     31.461458      1.776181
  C       8.891074     28.660790      2.975627
  H       9.256259     28.645867      1.919566
  H       9.169742     27.673917      3.398559
  H      14.299986     31.523045      8.706285
  H      12.141558     31.733628      7.491280
  H      13.634462     29.111350      4.380586
324
Coordinates from ORCA-job input E -9763.437425930186
  C      -2.656647      9.066301      2.194615
  C      -3.949033      9.214545      2.740681
  C      -4.667326      8.106103      3.201703
  C      -4.113448      6.813227      3.135079
  C      -2.810146      6.664855      2.619345
  C      -2.093145      7.773405      2.154488
  H      -1.072930      7.640598      1.762984
  H      -2.350368      5.664249      2.590077
  H      -4.404185     10.216187      2.771319
  H      -5.680827      8.242482      3.610697
  C      -4.872497      5.627325      3.649982
  Cl     -4.507204      5.315051      5.409206
  H      -4.603229      4.699290      3.111330
  H      -5.966282      5.778755      3.583328
  C      -0.990101     11.560194     -0.145736
  C      -0.739798     12.642723      0.715367
  C      -1.594513     10.369153      0.289508
  C      -1.064331     12.521534      2.081486
  C      -1.937029     10.256002      1.664367
  H      -0.736779     11.664818     -1.214063
  C      -1.651972     11.327395      2.531357
  H      -1.906890     11.221135      3.598370
  C      -2.031956      9.330061     -0.734768
  C      -3.540474      9.407784     -0.907059
  H      -1.744457      8.304542     -0.435002
  H      -1.522462      9.541725     -1.697522
  C      -4.401467      8.360364     -0.533247
  C      -5.786017      8.561134     -0.520216
  C      -6.358147      9.813511     -0.841571
  C      -5.501088     10.856204     -1.281083
  C      -4.117178     10.616308     -1.324157
  H      -3.984300      7.399403     -0.195116
  H      -6.448014      7.749701     -0.180913
  H      -3.454759     11.443606     -1.625422
  C      -7.824428      9.992869     -0.669762
  C      -8.735397      9.101910     -1.277388
  C     -10.115211      9.242118     -1.087966
  C     -10.631237     10.278436     -0.286247
  C      -8.345924     11.021345      0.148313
  C      -9.725307     11.160024      0.336148
  H      -8.348186      8.296032     -1.919478
  H     -10.808063      8.538135     -1.575699
  H      -7.655282     11.705957      0.664657
  H     -10.109081     11.961988      0.986459
  C     -12.106742     10.409504     -0.056958
  Cl    -12.634535      9.493461      1.429851
  H     -12.692732      9.995324     -0.898811
  H     -12.406945     11.461353      0.108399
  C      -0.817403     13.677042      3.024476
  C       0.285656     14.606306      2.579766
  H      -0.619417     13.302622      4.050125
  H      -1.750895     14.285135      3.108431
  C      -0.201213     13.949215      0.186700
  C       0.577142     14.746729      1.206486
  H      -1.070595     14.564373     -0.148158
  H       0.411100     13.780519     -0.722970
  C       1.007023     15.379461      3.507762
  C       1.975592     16.297806      3.090695
  C       1.555747     15.665671      0.798196
  C       2.258429     16.472102      1.717150
  H       1.744484     15.789743     -0.279899
  H       0.800678     15.257711      4.583252
  H       2.537504     16.875560      3.839769
  C       3.196555     17.516119      1.239220
  C       3.932923     17.362531      0.042195
  C       4.705721     18.409726     -0.471959
  C       4.779508     19.654908      0.183773
  C       4.086942     19.792026      1.404013
  H       3.895624     16.403924     -0.496963
  H       5.251548     18.264868     -1.418287
  C       3.315797     18.746613      1.921652
  H       4.098727     20.758651      1.928941
  H       2.744044     18.916363      2.845741
  C      -5.976712     12.245095     -1.662482
  C      -5.303821     13.345725     -0.855768
  H      -7.079236     12.321784     -1.568888
  H      -5.759560     12.421000     -2.738547
  C      -4.796513     13.103942      0.436483
  C      -4.103708     14.092762      1.141601
  C      -5.125014     14.635550     -1.394320
  C      -4.445355     15.633609     -0.683082
  C      -3.902936     15.380372      0.597715
  H      -4.890081     12.100621      0.877813
  H      -3.666875     13.838644      2.117461
  H      -5.514222     14.859763     -2.400778
  H      -4.322752     16.632199     -1.131106
  C      -3.088902     16.401021      1.309775
  C      -2.114468     17.119131      0.581420
  C      -1.263789     18.060386      1.177332
  C      -3.245341     16.690327      2.693763
  C      -2.349260     17.593388      3.292740
  C      -1.350632     18.262447      2.571195
  H      -2.011044     16.919538     -0.497402
  H      -2.470391     17.821648      4.364926
  C      -4.470097     16.272651      3.497842
  C      -5.475966     17.410676      3.453922
  H      -4.186920     16.062402      4.548837
  H      -4.929532     15.353998      3.088653
  C      -5.788430     18.182825      4.583681
  C      -6.600890     19.320337      4.460310
  C      -7.119410     19.722203      3.214853
  C      -6.826559     18.934880      2.065797
  C      -6.024708     17.795157      2.215892
  H      -5.374523     17.909264      5.567413
  H      -6.829101     19.928527      5.349376
  H      -5.772821     17.213694      1.315981
  C      -7.854621     21.013050      3.099199
  C      -9.198535     21.086803      2.687068
  C      -9.818673     22.329414      2.488023
  C      -9.115812     23.529297      2.701727
  C      -7.780389     23.456918      3.146413
  C      -7.164561     22.220755      3.348517
  H      -9.762027     20.158559      2.506693
  H      -6.110400     22.175270      3.659765
  H      -7.208963     24.385847      3.297696
  H     -10.866911     22.367677      2.150696
  C      -9.768123     24.860098      2.461034
  Cl     -8.913914     25.833138      1.174565
  H      -9.749515     25.499337      3.365451
  H     -10.817107     24.746488      2.129128
  C      -7.241411     19.362218      0.668845
  C      -6.756990     20.757919      0.321134
  H      -8.344603     19.329552      0.551402
  H      -6.835544     18.621615     -0.053515
  C      -5.443894     21.168495      0.629078
  C      -5.048828     22.499774      0.449721
  C      -5.951185     23.459970     -0.057979
  C      -7.634581     21.701636     -0.240006
  C      -7.241832     23.029246     -0.431463
  H      -4.734218     20.442713      1.057884
  H      -4.024074     22.805516      0.712615
  H      -8.668233     21.402835     -0.475141
  H      -7.969928     23.768426     -0.795589
  C      -5.612571     24.900561     -0.133527
  C      -5.018606     25.558955      0.960995
  C      -4.800063     26.947298      0.960542
  C      -5.951882     25.670004     -1.267569
  C      -5.700466     27.044255     -1.292738
  C      -5.137210     27.701828     -0.183405
  H      -4.769567     24.976489      1.862917
  H      -6.403005     25.175663     -2.141105
  H      -5.952070     27.628367     -2.192745
  C      -4.282535     27.646322      2.198632
  C      -3.563025     28.945591      1.919366
  C      -3.856320     29.677017      0.749768
  C      -4.934679     29.198642     -0.192449
  H      -5.895291     29.690157      0.097278
  H      -4.731077     29.553333     -1.224326
  H      -3.629193     26.964306      2.781940
  H      -5.153492     27.857262      2.865698
  C      -2.622918     29.464255      2.825241
  C      -3.161964     30.872041      0.507712
  C      -2.223473     31.396866      1.416817
  C      -1.961285     30.687521      2.619775
  H      -2.398983     28.890409      3.740431
  H      -3.372241     31.438112     -0.414250
  C      -1.493914     32.641206      1.048571
  C      -0.689213     32.654727     -0.111812
  C       0.058096     33.785990     -0.456785
  C      -1.564792     33.819213      1.822351
  C      -0.814698     34.950050      1.478205
  C       0.017045     34.945606      0.341516
  H      -0.627052     31.744429     -0.727178
  H       0.700568     33.764570     -1.351332
  H      -2.224523     33.850057      2.702801
  H      -0.872024     35.854576      2.104256
  C       0.895711     36.118187      0.029522
  Cl      2.541340     35.915148      0.793443
  H       0.484194     37.064491      0.427806
  H       1.073017     36.228473     -1.056845
  C      -0.950268     31.159967      3.654287
  C      -0.258996     18.851067      0.369730
  C      -0.375618     19.196840      3.242866
  C       0.019935     20.363988      2.368141
  H       0.537658     18.604855      3.492893
  H      -0.776772     19.553488      4.213374
  C       0.050605     20.205018      0.967374
  H      -0.603348     18.954521     -0.679634
  H       0.693405     18.272803      0.318562
  C       0.424550     21.299445      0.167994
  C       0.379458     21.603460      2.919310
  C       0.781639     22.692299      2.123261
  C       0.807571     22.539807      0.710063
  H       0.449110     21.170574     -0.927049
  H       0.346207     21.737310      4.012871
  C       1.202052     23.957362      2.784482
  C       2.278004     23.971265      3.696688
  C       0.553752     25.179912      2.514592
  C       0.977125     26.372328      3.114686
  C       2.054451     26.387201      4.024518
  C       2.695981     25.163521      4.302287
  H       3.547323     25.146374      5.001981
  H       2.814613     23.033336      3.906187
  H      -0.305993     25.195159      1.826736
  H       0.454670     27.309772      2.873408
  C       2.487490     27.663340      4.740316
  C       0.888962     29.475884      4.128053
  C       1.347921     31.223932      2.541951
  C       0.448729     30.615649      3.438599
  H      -1.306147     30.845589      4.656204
  H      -0.902284     32.264102      3.664640
  C       2.179621     28.930200      3.975693
  C       3.100164     29.581008      3.107472
  C       2.638172     30.713524      2.391962
  H       1.047516     32.115540      1.972332
  H       3.326395     31.212344      1.693687
  H       0.203441     28.989482      4.842173
  H       3.563767     27.596112      4.994184
  H       1.947650     27.703162      5.712655
  C       4.548422     29.244247      3.014205
  C       5.086210     27.936383      2.979565
  C       6.475805     27.731112      2.976463
  C       7.378129     28.811958      2.969291
  C       6.850866     30.121087      2.934039
  C       5.466419     30.317917      2.983104
  H       4.418079     27.063952      2.946508
  H       6.865265     26.699170      2.976430
  H       5.085645     31.349593      3.029757
  C       5.539403     20.819240     -0.433153
  C       4.962124     22.163935     -0.036927
  H       5.491513     20.716687     -1.538679
  H       6.615787     20.755010     -0.173922
  C       5.656388     23.147328      0.717589
  C       4.991642     24.361273      1.008120
  C       3.648913     24.566515      0.667053
  C       3.626720     22.406634     -0.396003
  C       2.932736     23.562277     -0.012623
  H       3.083370     21.616269     -0.938830
  H       5.529965     25.137272      1.574710
  H       3.141730     25.493931      0.974886
  C       1.423835     23.600347     -0.196216
  H       1.157902     23.371729     -1.248589
  H       1.041442     24.613307      0.026348
  C       7.028428     22.915289      1.239354
  C       7.337669     21.735143      1.954891
  C       8.632063     21.486251      2.416597
  C       9.671306     22.411901      2.194560
  C       9.359300     23.607824      1.521951
  C       8.060758     23.857783      1.051116
  H       6.545919     20.998855      2.158900
  H       8.841872     20.551137      2.957024
  H      10.153693     24.349887      1.339441
  H       7.849121     24.783695      0.493750
  C      11.076844     22.107649      2.678961
  C      11.186582     22.155154      4.194716
  H      11.780771     22.844593      2.242335
  H      11.375839     21.112860      2.298097
  C      11.318264     23.415434      4.807100
  C      11.353114     23.571808      6.196608
  C      11.242862     22.432960      7.025360
  C      11.100413     21.174697      6.429365
  C      11.078647     21.009147      5.026046
  C      10.930012     19.631238      4.482048
  H      11.037871     20.277628      7.065942
  H      11.397163     24.309761      4.166746
  C      11.893856     19.062800      3.620345
  C      11.728396     17.770193      3.109915
  C      10.601106     16.997639      3.451687
  C       9.648774     17.551532      4.328711
  C       9.813423     18.844151      4.839920
  H      12.794184     19.641130      3.362959
  H      12.489431     17.348767      2.434165
  H       8.758074     16.964578      4.603395
  H       9.053774     19.268977      5.513982
  C      10.395146     15.636687      2.857982
  Cl      9.437818     15.731834      1.308656
  H       9.822763     14.973276      3.533295
  H      11.354176     15.149269      2.600218
  C      11.329019     22.638915      8.524568
  C      12.399867     23.655012      8.861235
  H      11.504297     21.681029      9.052788
  H      10.343914     23.019766      8.888925
  C      12.524126     24.780756      8.015629
  C      11.551564     24.911526      6.865254
  H      11.886811     25.680416      6.140635
  H      10.570552     25.266269      7.263902
  C      13.295015     23.514890      9.934384
  C      14.309239     24.456678     10.154067
  C      14.475363     25.561363      9.289626
  C      13.554836     25.700846      8.225833
  H      13.663327     26.529918      7.511011
  H      14.984233     24.325248     11.012424
  H      13.203734     22.647340     10.607380
  C      15.592537     26.526888      9.438643
  C      16.771486     26.220587     10.151137
  C      17.821511     27.143662     10.210958
  C      15.524806     27.787111      8.805946
  C      16.582148     28.703085      8.812894
  C      17.758816     28.379990      9.539976
  H      18.733534     26.889994     10.774698
  H      16.886316     25.243628     10.642566
  H      14.606417     28.069474      8.276992
  C      18.916359     29.326141      9.615575
  Cl     18.582218     30.739131     10.732490
  H      19.163336     29.780086      8.636878
  H      19.819550     28.831032     10.016961
  C      16.475765     30.013680      8.044439
  C      15.190190     30.184879      7.271501
  H      17.337930     30.074517      7.342820
  H      16.615835     30.856484      8.754089
  C      14.973415     29.500614      6.056466
  C      13.758004     29.608006      5.368456
  C      12.712507     30.420575      5.863023
  C      12.930825     31.098738      7.082869
  C      14.142882     30.978960      7.773612
  H      15.776696     28.870294      5.642005
  C      11.447056     30.611745      5.110907
  C      10.789560     29.552335      4.445028
  C      10.874238     31.900654      5.039680
  C       9.602585     29.761774      3.719070
  C       9.057759     31.064726      3.649288
  C       9.697347     32.118987      4.320479
  H      11.203312     28.532618      4.516250
  H      11.377696     32.744816      5.533845
  H       9.267420     33.131943      4.267540
  C       7.801593     31.289825      2.846110
  H       7.301266     32.230241      3.152467
  H       8.083850     31.433290      1.774430
  C       8.885292     28.637870      2.989173
  H       9.253681     28.617507      1.934297
  H       9.160107     27.651904      3.416807
  H      14.278244     31.507200      8.730701
  H      12.125966     31.719027      7.505336
  H      13.628347     29.087607      4.406920
324
Coordinates from ORCA-job input E -9763.437499773696
  C      -2.628134      9.079928      2.197595
  C      -3.921621      9.226055      2.741665
  C      -4.639170      8.116400      3.200774
  C      -4.083054      6.824460      3.134987
  C      -2.778498      6.678262      2.621903
  C      -2.062436      7.787972      2.158375
  H      -1.041317      7.656905      1.768671
  H      -2.317150      5.678356      2.593382
  H      -4.378253     10.227011      2.771626
  H      -5.653640      8.251021      3.607899
  C      -4.841274      5.637275      3.648128
  Cl     -4.480416      5.326162      5.408445
  H      -4.568788      4.709632      3.110428
  H      -5.935137      5.786661      3.578288
  C      -0.967560     11.578710     -0.141212
  C      -0.719136     12.661099      0.720600
  C      -1.568207     10.385699      0.293590
  C      -1.042702     12.538369      2.086763
  C      -1.909904     10.270955      1.668490
  H      -0.714285     11.684313     -1.209453
  C      -1.627452     11.342557      2.536006
  H      -1.881815     11.235001      3.603018
  C      -2.004710      9.346671     -0.731078
  C      -3.514890      9.412209     -0.893257
  H      -1.706467      8.322395     -0.437408
  H      -1.503400      9.565951     -1.696459
  C      -4.363916      8.353299     -0.524734
  C      -5.750077      8.541190     -0.500928
  C      -6.335779      9.790950     -0.807558
  C      -5.491004     10.845811     -1.241796
  C      -4.105160     10.619493     -1.294601
  H      -3.935876      7.393300     -0.197691
  H      -6.402346      7.720287     -0.165642
  H      -3.452204     11.456262     -1.590245
  C      -7.802195      9.955274     -0.622273
  C      -8.710340      9.061172     -1.229361
  C     -10.089780      9.188352     -1.028183
  C     -10.608257     10.214107     -0.214607
  C      -8.326134     10.974799      0.205452
  C      -9.705095     11.100697      0.404793
  H      -8.321744      8.265225     -1.882881
  H     -10.780284      8.480497     -1.513632
  H      -7.637440     11.665237      0.716624
  H     -10.090328     11.894093      1.064677
  C     -12.083073     10.331458      0.026437
  Cl    -12.591708      9.403829      1.512703
  H     -12.671849      9.916487     -0.813075
  H     -12.390902     11.379905      0.199245
  C      -0.797878     13.693722      3.030445
  C       0.301841     14.626820      2.585235
  H      -0.597359     13.318920      4.055459
  H      -1.733123     14.298808      3.116207
  C      -0.184184     13.969060      0.192133
  C       0.592074     14.768486      1.211845
  H      -1.055263     14.581859     -0.142743
  H       0.428518     13.802119     -0.717591
  C       1.020762     15.402771      3.512886
  C       1.984829     16.325697      3.095274
  C       1.566233     15.691791      0.803053
  C       2.265873     16.501288      1.721538
  H       1.754799     15.816028     -0.275073
  H       0.815359     15.280238      4.588461
  H       2.544878     16.905868      3.843921
  C       3.196627     17.551029      1.241708
  C       3.933674     17.399823      0.044823
  C       4.696721     18.452028     -0.473362
  C       4.759170     19.700245      0.177716
  C       4.066027     19.835626      1.397868
  H       3.903797     16.439266     -0.491354
  H       5.243886     18.308685     -1.419136
  C       3.305100     18.784911      1.919877
  H       4.068852     20.804539      1.918981
  H       2.732181     18.952707      2.843516
  C      -5.982785     12.232004     -1.613116
  C      -5.306396     13.336252     -0.814867
  H      -7.084267     12.299691     -1.502010
  H      -5.784450     12.411272     -2.692257
  C      -4.793594     13.099854      0.476276
  C      -4.099392     14.092068      1.175225
  C      -5.130240     14.623839     -1.359249
  C      -4.449041     15.625336     -0.654249
  C      -3.902648     15.378091      0.625974
  H      -4.884810     12.097919      0.921335
  H      -3.659347     13.841944      2.150794
  H      -5.521882     14.843442     -2.365774
  H      -4.330059     16.622600     -1.106045
  C      -3.089622     16.403208      1.332624
  C      -2.120776     17.124118      0.599621
  C      -1.272167     18.069838      1.191118
  C      -3.242088     16.693942      2.716654
  C      -2.346948     17.600884      3.311555
  C      -1.353898     18.272917      2.585263
  H      -2.020585     16.923552     -0.479325
  H      -2.464719     17.829659      4.383993
  C      -4.463545     16.274225      3.524631
  C      -5.470384     17.411343      3.481656
  H      -4.177398     16.065173      4.575033
  H      -4.922555     15.354648      3.117032
  C      -5.781152     18.184880      4.610950
  C      -6.592958     19.322873      4.487244
  C      -7.111837     19.723949      3.241729
  C      -6.821445     18.934812      2.093538
  C      -6.020450     17.794623      2.243907
  H      -5.367021     17.911583      5.594652
  H      -6.818782     19.932922      5.375646
  H      -5.769964     17.212118      1.344211
  C      -7.844151     21.016203      3.123517
  C      -9.188626     21.092471      2.713447
  C      -9.804992     22.336458      2.510728
  C      -9.097794     23.534927      2.718564
  C      -7.761382     23.459911      3.159998
  C      -7.149359     22.222570      3.365892
  H      -9.755358     20.165413      2.537135
  H      -6.094030     22.174624      3.672758
  H      -7.186531     24.387538      3.307074
  H     -10.853812     22.376887      2.175502
  C      -9.746633     24.867195      2.476941
  Cl     -8.892508     25.835685      1.186629
  H      -9.723560     25.508242      3.379958
  H     -10.796743     24.756440      2.147684
  C      -7.237931     19.361209      0.696992
  C      -6.751166     20.755162      0.344836
  H      -8.341434     19.330981      0.582032
  H      -6.835696     18.618416     -0.025157
  C      -5.436080     21.164179      0.646923
  C      -5.037918     22.493396      0.458413
  C      -5.939558     23.452645     -0.052328
  C      -7.628155     21.698000     -0.218670
  C      -7.232452     23.023293     -0.419456
  H      -4.726327     20.438457      1.075593
  H      -4.012032     22.799071      0.718146
  H      -8.662619     21.399567     -0.450840
  H      -7.959445     23.762694     -0.785319
  C      -5.596634     24.891440     -0.141457
  C      -5.004577     25.560404      0.947644
  C      -4.782902     26.948281      0.932377
  C      -5.928729     25.648505     -1.285824
  C      -5.672880     27.021530     -1.326013
  C      -5.113663     27.690437     -0.221526
  H      -4.759129     24.987094      1.856450
  H      -6.374899     25.144582     -2.156443
  H      -5.921278     27.596423     -2.232814
  C      -4.270411     27.660425      2.165103
  C      -3.548985     28.956373      1.875237
  C      -3.834705     29.674441      0.695474
  C      -4.908390     29.186626     -0.246972
  H      -5.869841     29.682813      0.031821
  H      -4.698690     29.528978     -1.281790
  H      -3.619750     26.984510      2.758475
  H      -5.144392     27.878219      2.825996
  C      -2.614572     29.485402      2.781157
  C      -3.137527     30.865615      0.443214
  C      -2.202893     31.399332      1.350927
  C      -1.950202     30.705427      2.565039
  H      -2.397489     28.922637      3.704838
  H      -3.339635     31.419686     -0.487879
  C      -1.467384     32.637013      0.972421
  C      -0.654693     32.632809     -0.182522
  C       0.103581     33.754723     -0.533641
  C      -1.535536     33.823631      1.732963
  C      -0.773615     34.944926      1.383289
  C       0.067471     34.921937      0.253845
  H      -0.594547     31.715840     -0.788073
  H       0.754338     33.717949     -1.421669
  H      -2.200095     33.868544      2.609161
  H      -0.827703     35.855552      2.000716
  C       0.960156     36.082847     -0.061877
  Cl      2.601202     35.862887      0.707589
  H       0.558926     37.035835      0.330881
  H       1.141808     36.185840     -1.148264
  C      -0.946859     31.191191      3.601269
  C      -0.274107     18.865148      0.379896
  C      -0.377955     19.211001      3.250602
  C       0.002690     20.382257      2.374626
  H       0.541245     18.623331      3.488370
  H      -0.771038     19.562378      4.226244
  C       0.026553     20.222808      0.973663
  H      -0.619402     18.962478     -0.669692
  H       0.682589     18.293877      0.330859
  C       0.389868     21.318737      0.171868
  C       0.356346     21.624532      2.923260
  C       0.747843     22.715505      2.124399
  C       0.768548     22.561684      0.711211
  H       0.412349     21.188624     -0.923071
  H       0.327229     21.759087      4.016841
  C       1.169854     23.981449      2.782564
  C       2.248503     23.994781      3.691538
  C       0.519801     25.204036      2.516671
  C       0.946490     26.396286      3.114955
  C       2.028889     26.411236      4.019030
  C       2.669399     25.186763      4.295780
  H       3.524661     25.169221      4.990658
  H       2.783285     23.055877      3.901797
  H      -0.345430     25.218911      1.835334
  H       0.424272     27.334148      2.874567
  C       2.466097     27.687298      4.732762
  C       0.883390     29.505344      4.099415
  C       1.363838     31.246167      2.512111
  C       0.453767     30.644329      3.402116
  H      -1.309785     30.888287      4.604171
  H      -0.900042     32.295320      3.598806
  C       2.172849     28.953332      3.960533
  C       3.104112     29.596805      3.097580
  C       2.653009     30.729145      2.374715
  H       1.073026     32.136892      1.936438
  H       3.348918     31.223483      1.680936
  H       0.189110     29.023314      4.807970
  H       3.539826     27.613311      4.995363
  H       1.919139     27.735161      5.700751
  C       4.551101     29.250782      3.013983
  C       5.080404     27.939265      2.987542
  C       6.468547     27.723872      2.995344
  C       7.378554     28.798022      2.990548
  C       6.860851     30.110762      2.947419
  C       5.477400     30.317833      2.986778
  H       4.406808     27.071155      2.953920
  H       6.850224     26.689019      3.000567
  H       5.104451     31.352501      3.029166
  C       5.507908     20.868847     -0.444553
  C       4.923278     22.210219     -0.048345
  H       5.455461     20.764087     -1.549660
  H       6.585991     20.812405     -0.190506
  C       5.613174     23.199189      0.702845
  C       4.941854     24.409943      0.991296
  C       3.596871     24.605589      0.653608
  C       3.585205     22.443141     -0.403800
  C       2.884883     23.595093     -0.020824
  H       3.045434     21.647658     -0.942711
  H       5.476122     25.191042      1.554469
  H       3.084532     25.530375      0.960653
  C       1.375272     23.623894     -0.199665
  H       1.107063     23.391088     -1.250517
  H       0.988041     24.635249      0.021681
  C       6.987479     22.976262      1.222337
  C       7.306487     21.795042      1.931885
  C       8.603351     21.552904      2.389778
  C       9.635780     22.486736      2.170250
  C       9.313203     23.685318      1.507517
  C       8.012125     23.928222      1.039687
  H       6.520296     21.052519      2.134711
  H       8.820986     20.615514      2.922994
  H      10.102018     24.433845      1.327178
  H       7.792227     24.857511      0.491237
  C      11.045966     22.185679      2.643347
  C      11.161842     22.192996      4.159196
  H      11.740434     22.941572      2.224379
  H      11.354342     21.205070      2.233944
  C      11.288734     23.437594      4.803888
  C      11.330415     23.557843      6.196816
  C      11.233187     22.396717      6.995820
  C      11.094651     21.153786      6.367629
  C      11.064688     21.024917      4.960625
  C      10.915997     19.661258      4.381890
  H      11.041227     20.239956      6.980769
  H      11.357659     24.348815      4.186606
  C      11.873082     19.118497      3.496491
  C      11.705606     17.839792      2.952688
  C      10.582755     17.055870      3.282933
  C       9.637227     17.583712      4.183040
  C       9.804405     18.861948      4.728340
  H      12.770139     19.705300      3.247012
  H      12.461371     17.438833      2.258807
  H       8.750593     16.987365      4.450550
  H       9.048984     19.267042      5.419113
  C      10.373362     15.711673      2.653355
  Cl      9.397026     15.847558      1.119016
  H       9.811024     15.027617      3.316396
  H      11.330596     15.234748      2.370563
  C      11.328964     22.562896      8.499346
  C      12.394387     23.577882      8.855625
  H      11.515884     21.592345      8.999796
  H      10.343557     22.925036      8.881603
  C      12.504740     24.726498      8.039370
  C      11.522953     24.880936      6.899584
  H      11.846682     25.671935      6.193514
  H      10.542087     25.216280      7.314739
  C      13.297694     23.416576      9.918885
  C      14.306856     24.359405     10.156261
  C      14.460446     25.486917      9.319389
  C      13.531045     25.647474      8.266139
  H      13.628127     26.494809      7.571607
  H      14.988663     24.209615     11.006092
  H      13.216679     22.531642     10.570208
  C      15.573567     26.454851      9.484592
  C      16.753579     26.143313     10.193391
  C      17.799975     27.069586     10.266713
  C      15.501795     27.723763      8.869998
  C      16.555520     28.643502      8.889849
  C      17.732873     28.315250      9.613559
  H      18.712005     26.811926     10.828603
  H      16.873214     25.159778     10.670177
  H      14.583171     28.011267      8.344459
  C      18.887562     29.263873      9.701693
  Cl     18.549617     30.661475     10.836604
  H      19.133224     29.730993      8.728829
  H      19.792235     28.766140     10.096458
  C      16.444614     29.962785      8.137193
  C      15.164025     30.134424      7.355794
  H      17.311916     30.039398      7.443433
  H      16.572755     30.797809      8.858116
  C      14.955588     29.451684      6.138266
  C      13.745886     29.561902      5.440630
  C      12.697998     30.376268      5.927371
  C      12.908362     31.053746      7.148912
  C      14.114354     30.930361      7.849740
  H      15.761474     28.821468      5.728764
  C      11.440337     30.573575      5.163764
  C      10.782050     29.517263      4.493670
  C      10.876709     31.866127      5.085121
  C       9.603353     29.733588      3.756129
  C       9.068312     31.040384      3.678333
  C       9.708503     32.091434      4.353810
  H      11.188243     28.494749      4.570603
  H      11.381144     32.707719      5.582708
  H       9.286013     33.107186      4.295201
  C       7.821517     31.271793      2.862283
  H       7.325975     32.217755      3.159104
  H       8.114781     31.407378      1.792532
  C       8.884315     28.613584      3.021908
  H       9.260670     28.589752      1.969918
  H       9.149099     27.626170      3.452460
  H      14.243950     31.459848      8.806935
  H      12.101247     31.674851      7.565893
  H      13.622522     29.041429      4.478297
324
Coordinates from ORCA-job input E -9763.437573070139
  C      -2.610212      9.085462      2.198412
  C      -3.902470      9.230856      2.745600
  C      -4.620359      8.120250      3.201723
  C      -4.065148      6.828174      3.131039
  C      -2.761597      6.682654      2.615314
  C      -2.045443      7.793278      2.154174
  H      -1.025356      7.662793      1.761629
  H      -2.300810      5.682587      2.583663
  H      -4.357952     10.232211      2.779673
  H      -5.634017      8.254207      3.611026
  C      -4.823871      5.639704      3.640491
  Cl     -4.463207      5.322990      5.399813
  H      -4.551811      4.713641      3.099875
  H      -5.917657      5.789788      3.571184
  C      -0.957607     11.593281     -0.135749
  C      -0.706581     12.672199      0.729783
  C      -1.555921     10.398090      0.296266
  C      -1.023702     12.543249      2.096792
  C      -1.892502     10.277834      1.671890
  H      -0.709624     11.704081     -1.204696
  C      -1.606784     11.345521      2.542948
  H      -1.856388     11.232934      3.610556
  C      -1.994631      9.361973     -0.730481
  C      -3.506508      9.417384     -0.880908
  H      -1.686366      8.337911     -0.446095
  H      -1.502543      9.590596     -1.698490
  C      -4.344389      8.345110     -0.525994
  C      -5.731874      8.520938     -0.489866
  C      -6.329960      9.770528     -0.772142
  C      -5.496841     10.839320     -1.194605
  C      -4.109373     10.626056     -1.258478
  H      -3.906439      7.383005     -0.218934
  H      -6.374898      7.689292     -0.163487
  H      -3.465327     11.473104     -1.543867
  C      -7.795998      9.919855     -0.570875
  C      -8.703458      9.027589     -1.181470
  C     -10.081738      9.140679     -0.963647
  C     -10.599741     10.150338     -0.129924
  C      -8.319387     10.922850      0.277347
  C      -9.696994     11.034953      0.493000
  H      -8.315801      8.244041     -1.850334
  H     -10.771756      8.434711     -1.452499
  H      -7.630546     11.611026      0.791363
  H     -10.081317     11.815858      1.168117
  C     -12.072855     10.252684      0.128125
  Cl    -12.557852      9.306613      1.610757
  H     -12.667100      9.840916     -0.709077
  H     -12.387679     11.296705      0.314576
  C      -0.777176     13.694969      3.044393
  C       0.317946     14.633123      2.598380
  H      -0.570458     13.315806      4.066571
  H      -1.713918     14.296619      3.137611
  C      -0.174881     13.982719      0.204565
  C       0.603459     14.779814      1.224524
  H      -1.047919     14.595403     -0.124945
  H       0.434966     13.820077     -0.707827
  C       1.037329     15.408679      3.526012
  C       1.996354     16.336802      3.108193
  C       1.572810     15.708129      0.815434
  C       2.272094     16.517898      1.734140
  H       1.757466     15.836443     -0.262887
  H       0.837039     15.280919      4.601936
  H       2.555720     16.917828      3.856759
  C       3.195776     17.573699      1.253306
  C       3.932720     17.426499      0.055845
  C       4.686408     18.484126     -0.465013
  C       4.737752     19.734541      0.182898
  C       4.044720     19.866556      1.403566
  H       3.911100     16.464351     -0.477867
  H       5.234170     18.343697     -1.410848
  C       3.294798     18.809730      1.929231
  H       4.039282     20.836956      1.922350
  H       2.721847     18.974054      2.853394
  C      -6.004735     12.223905     -1.551136
  C      -5.319605     13.329898     -0.763901
  H      -7.103929     12.283666     -1.416077
  H      -5.831551     12.407261     -2.633933
  C      -4.804653     13.099043      0.527588
  C      -4.105593     14.092718      1.219273
  C      -5.139244     14.613184     -1.316390
  C      -4.453536     15.616565     -0.618303
  C      -3.906892     15.375485      0.662783
  H      -4.899259     12.099795      0.978186
  H      -3.664735     13.846672      2.195616
  H      -5.530882     14.828063     -2.323918
  H      -4.333056     16.611102     -1.075565
  C      -3.091507     16.402318      1.363805
  C      -2.126017     17.123546      0.626223
  C      -1.277976     18.072074      1.213537
  C      -3.242516     16.697774      2.746968
  C      -2.346639     17.606593      3.338004
  C      -1.355476     18.276563      2.607964
  H      -2.030733     16.923570     -0.453284
  H      -2.460904     17.836260      4.410607
  C      -4.464967     16.284494      3.556941
  C      -5.468388     17.424111      3.505568
  H      -4.180036     16.080762      4.608705
  H      -4.925642     15.363732      3.154144
  C      -5.781463     18.204113      4.629805
  C      -6.588208     19.344787      4.496858
  C      -7.098863     19.742294      3.246816
  C      -6.807050     18.945758      2.104037
  C      -6.011158     17.803482      2.263666
  H      -5.373304     17.933564      5.616743
  H      -6.814672     19.960763      5.380996
  H      -5.758926     17.215437      1.367950
  C      -7.825411     21.036944      3.117800
  C      -9.168146     21.116284      2.702588
  C      -9.778882     22.361334      2.490845
  C      -9.067842     23.558017      2.694967
  C      -7.733485     23.480278      3.141999
  C      -7.126742     22.241716      3.356197
  H      -9.738166     20.190628      2.529597
  H      -6.073213     22.191093      3.668775
  H      -7.155747     24.406498      3.286361
  H     -10.826223     22.403935      2.151341
  C      -9.710703     24.891369      2.444961
  Cl     -8.845876     25.850799      1.154818
  H      -9.689779     25.536310      3.345238
  H     -10.759465     24.783248      2.110596
  C      -7.214397     19.366174      0.703219
  C      -6.719605     20.755335      0.343638
  H      -8.317438     19.340446      0.583045
  H      -6.812570     18.617092     -0.012632
  C      -5.404277     21.161298      0.649558
  C      -4.999130     22.487006      0.451289
  C      -5.894190     23.444785     -0.073386
  C      -7.589837     21.697058     -0.232054
  C      -7.187067     23.018339     -0.443054
  H      -4.700206     20.436453      1.088899
  H      -3.973370     22.791663      0.714283
  H      -8.624463     21.401144     -0.466529
  H      -7.908029     23.758159     -0.819862
  C      -5.546704     24.881321     -0.173715
  C      -4.969556     25.560495      0.916762
  C      -4.750554     26.948202      0.891619
  C      -5.862446     25.626354     -1.330260
  C      -5.608114     26.999373     -1.379961
  C      -5.067177     27.679232     -0.273374
  H      -4.735636     24.995789      1.833913
  H      -6.295230     25.112963     -2.202110
  H      -5.845170     27.565675     -2.295144
  C      -4.257486     27.673247      2.124498
  C      -3.532067     28.965967      1.831514
  C      -3.805837     29.673894      0.642843
  C      -4.869164     29.176058     -0.305823
  H      -5.835536     29.667342     -0.035359
  H      -4.654104     29.514707     -1.340660
  H      -3.616482     27.004043      2.735634
  H      -5.142301     27.897983      2.768496
  C      -2.607413     29.502627      2.742513
  C      -3.106236     30.862271      0.386953
  C      -2.180562     31.403634      1.299353
  C      -1.941179     30.720982      2.522767
  H      -2.400652     28.948297      3.673612
  H      -3.298630     31.407324     -0.551233
  C      -1.442968     32.639945      0.919990
  C      -0.616923     32.629308     -0.225548
  C       0.147524     33.748289     -0.572667
  C      -1.517560     33.830113      1.674188
  C      -0.748625     34.948256      1.329201
  C       0.107020     34.918048      0.211094
  H      -0.551903     31.710307     -0.827486
  H       0.811522     33.704615     -1.450490
  H      -2.190617     33.880011      2.543587
  H      -0.805981     35.860141      1.944463
  C       1.007212     36.074979     -0.098670
  Cl      2.644384     35.843176      0.676232
  H       0.610050     37.029138      0.295299
  H       1.193801     36.179941     -1.184042
  C      -0.947035     31.213906      3.564544
  C      -0.283142     18.869972      0.400721
  C      -0.376567     19.215889      3.266665
  C      -0.012535     20.392357      2.390712
  H       0.548979     18.631432      3.486194
  H      -0.757832     19.559570      4.249568
  C       0.005895     20.232411      0.989537
  H      -0.624038     18.958649     -0.650974
  H       0.678352     18.306202      0.360075
  C       0.357991     21.330325      0.185721
  C       0.332503     21.637415      2.937289
  C       0.713574     22.730598      2.136373
  C       0.731014     22.576057      0.723497
  H       0.379765     21.199339     -0.909118
  H       0.305875     21.772561      4.030831
  C       1.134853     23.996709      2.793611
  C       2.215542     24.008596      3.700096
  C       0.485474     25.219915      2.529198
  C       0.915249     26.411486      3.126593
  C       1.999902     26.425309      4.027999
  C       2.639649     25.200005      4.303083
  H       3.495654     25.180844      4.996982
  H       2.751412     23.069435      3.906962
  H      -0.380240     25.235990      1.847943
  H       0.393098     27.349857      2.887992
  C       2.442033     27.701225      4.738991
  C       0.873429     29.525121      4.087291
  C       1.373277     31.255990      2.495435
  C       0.453740     30.662192      3.380754
  H      -1.318677     30.918402      4.566389
  H      -0.899206     32.317900      3.554110
  C       2.160881     28.965706      3.959462
  C       3.100862     29.600075      3.099302
  C       2.660682     30.731984      2.369346
  H       1.092074     32.146110      1.914533
  H       3.363093     31.220862      1.678218
  H       0.172056     29.049603      4.793217
  H       3.513924     27.620813      5.007386
  H       1.890568     27.756714      5.703947
  C       4.545768     29.244687      3.024981
  C       5.067276     27.929898      3.013946
  C       6.454231     27.705676      3.026181
  C       7.370258     28.774203      3.011758
  C       6.860212     30.089372      2.951917
  C       5.478505     30.305642      2.986927
  H       4.388790     27.065481      2.985082
  H       6.829435     26.668628      3.045793
  H       5.112253     31.343240      3.013096
  C       5.475816     20.907784     -0.443236
  C       4.884132     22.246274     -0.047859
  H       5.420804     20.801118     -1.548025
  H       6.555170     20.858977     -0.192851
  C       5.572256     23.243082      0.694691
  C       4.896185     24.452427      0.977476
  C       3.548515     24.638584      0.645075
  C       3.542909     22.469340     -0.397743
  C       2.838163     23.619922     -0.018292
  H       3.005201     21.667442     -0.929103
  H       5.428345     25.240386      1.532865
  H       3.032353     25.562057      0.949507
  C       1.327528     23.641645     -0.189987
  H       1.055162     23.408117     -1.239564
  H       0.937237     24.651250      0.033984
  C       6.950485     23.030676      1.208352
  C       7.279756     21.853489      1.920106
  C       8.580262     21.619535      2.371704
  C       9.606742     22.557981      2.143796
  C       9.273024     23.754677      1.483234
  C       7.968236     23.989067      1.021042
  H       6.498395     21.108030      2.130497
  H       8.805949     20.683866      2.904296
  H      10.056645     24.507277      1.297197
  H       7.739477     24.918359      0.476282
  C      11.023250     22.261519      2.601797
  C      11.152243     22.224933      4.116102
  H      11.705563     23.037700      2.200331
  H      11.340681     21.297805      2.160244
  C      11.274613     23.451424      4.794894
  C      11.329314     23.532563      6.190170
  C      11.252951     22.348551      6.956857
  C      11.119335     21.122811      6.294764
  C      11.073418     21.033566      4.884974
  C      10.920835     19.685991      4.270580
  H      11.078856     20.191618      6.882228
  H      11.330329     24.380023      4.202757
  C      11.866878     19.167429      3.359318
  C      11.691890     17.904165      2.782562
  C      10.571947     17.112238      3.103548
  C       9.637804     17.615305      4.029265
  C       9.813005     18.877525      4.608111
  H      12.762312     19.759465      3.116519
  H      12.439026     17.522459      2.068773
  H       8.753134     17.013066      4.289939
  H       9.065763     19.263944      5.318182
  C      10.353425     15.786436      2.439073
  Cl      9.360217     15.966057      0.920144
  H       9.797345     15.084955      3.089039
  H      11.306713     15.316270      2.132658
  C      11.365261     22.471781      8.463518
  C      12.418944     23.492317      8.838566
  H      11.574071     21.489398      8.931349
  H      10.378953     22.804336      8.869741
  C      12.505463     24.664742      8.054401
  C      11.511794     24.837401      6.927981
  H      11.818571     25.651492      6.241723
  H      10.530627     25.147230      7.361369
  C      13.333939     23.315858      9.889401
  C      14.330394     24.267499     10.144969
  C      14.460204     25.420482      9.338886
  C      13.519291     25.594884      8.298370
  H      13.595884     26.461617      7.625826
  H      15.021924     24.103440     10.984112
  H      13.272107     22.412243     10.516697
  C      15.560353     26.400544      9.521926
  C      16.742191     26.093861     10.229477
  C      17.776546     27.031907     10.320459
  C      15.475245     27.677939      8.926445
  C      16.517173     28.610669      8.963759
  C      17.696019     28.286663      9.686857
  H      18.689421     26.777047     10.882219
  H      16.874035     25.105062     10.691707
  H      14.555913     27.963346      8.401211
  C      18.839132     29.247496      9.792876
  Cl     18.481902     30.624813     10.946608
  H      19.082424     29.731312      8.827546
  H      19.748330     28.754486     10.183130
  C      16.393116     29.938656      8.228925
  C      15.118155     30.104541      7.437088
  H      17.265949     30.038856      7.545105
  H      16.501892     30.764958      8.962817
  C      14.924190     29.424306      6.215686
  C      13.721772     29.533286      5.505449
  C      12.667580     30.345420      5.982059
  C      12.863097     31.019928      7.207635
  C      14.061348     30.896659      7.921674
  H      15.735749     28.796911      5.813185
  C      11.418511     30.543314      5.204777
  C      10.763641     29.486392      4.532434
  C      10.860582     31.837341      5.114526
  C       9.594056     29.703393      3.781542
  C       9.065688     31.011849      3.690834
  C       9.701960     32.063804      4.368350
  H      11.164265     28.463084      4.619197
  H      11.362069     32.679128      5.614788
  H       9.284324     33.080918      4.299974
  C       7.829453     31.242419      2.858884
  H       7.338303     32.196321      3.136739
  H       8.134408     31.359501      1.790240
  C       8.875122     28.583448      3.047139
  H       9.254498     28.557023      1.996277
  H       9.135049     27.595926      3.480213
  H      14.179651     31.424864      8.881030
  H      12.050565     31.638988      7.617120
  H      13.610204     29.015104      4.540448
324
Coordinates from ORCA-job input E -9763.437631798219
  C      -2.582244      9.110079      2.216588
  C      -3.875966      9.257526      2.759737
  C      -4.596311      8.148492      3.215596
  C      -4.042154      6.855813      3.148596
  C      -2.737363      6.708146      2.636615
  C      -2.018821      7.817234      2.175478
  H      -0.997799      7.685079      1.785907
  H      -2.277568      5.707520      2.607841
  H      -4.329980     10.259576      2.791796
  H      -5.611224      8.284122      3.621247
  C      -4.803375      5.669022      3.658064
  Cl     -4.449816      5.356565      5.419669
  H      -4.529610      4.741478      3.120844
  H      -5.896856      5.819316      3.584142
  C      -0.929659     11.614434     -0.120076
  C      -0.681993     12.695663      0.743365
  C      -1.524963     10.418698      0.313956
  C      -0.999886     12.569031      2.110482
  C      -1.863115     10.301078      1.689305
  H      -0.681318     11.723949     -1.189099
  C      -1.580840     11.371072      2.558554
  H      -1.833136     11.260811      3.625777
  C      -1.960154      9.378691     -0.710236
  C      -3.473399      9.417402     -0.850230
  H      -1.638377      8.357791     -0.429114
  H      -1.477410      9.613608     -1.681508
  C      -4.296685      8.332607     -0.499519
  C      -5.685741      8.492571     -0.452183
  C      -6.299489      9.737768     -0.719910
  C      -5.481526     10.819130     -1.139839
  C      -4.092187     10.622381     -1.213312
  H      -3.845699      7.373136     -0.203235
  H      -6.317180      7.651244     -0.127896
  H      -3.459594     11.478552     -1.496719
  C      -7.765643      9.869238     -0.507473
  C      -8.667754      8.971506     -1.117674
  C     -10.045408      9.067262     -0.887763
  C     -10.568000     10.064640     -0.042356
  C      -8.293405     10.859373      0.353185
  C      -9.670265     10.954307      0.580745
  H      -8.276759      8.196760     -1.794829
  H     -10.731449      8.357630     -1.376932
  H      -7.607812     11.550306      0.867853
  H     -10.057930     11.725819      1.264703
  C     -12.039886     10.148309      0.228115
  Cl    -12.501159      9.190486      1.710828
  H     -12.636232      9.732841     -0.605751
  H     -12.365774     11.187613      0.421840
  C      -0.756611     13.722991      3.056195
  C       0.335815     14.663373      2.608798
  H      -0.548651     13.345574      4.078829
  H      -1.695124     14.321746      3.149232
  C      -0.152419     14.005765      0.215671
  C       0.621898     14.807438      1.234764
  H      -1.025802     14.616365     -0.117049
  H       0.459719     13.842139     -0.695040
  C       1.051312     15.444557      3.534770
  C       2.006651     16.375643      3.114921
  C       1.587941     15.737808      0.823927
  C       2.282318     16.553598      1.740518
  H       1.772048     15.864617     -0.254696
  H       0.850520     15.319223      4.610901
  H       2.562299     16.962274      3.861916
  C       3.198048     17.613547      1.254785
  C       3.936024     17.465117      0.058217
  C       4.678412     18.526579     -0.470499
  C       4.716502     19.782013      0.168303
  C       4.023182     19.915609      1.388572
  H       3.923173     16.499254     -0.469086
  H       5.227906     18.385038     -1.415167
  C       3.285130     18.854740      1.922566
  H       4.007986     20.889597      1.900115
  H       2.710451     19.019272      2.845779
  C      -6.008404     12.199444     -1.486028
  C      -5.319483     13.311356     -0.711119
  H      -7.105338     12.248865     -1.330239
  H      -5.857774     12.384507     -2.571919
  C      -4.796549     13.089458      0.578919
  C      -4.097435     14.089519      1.260866
  C      -5.145557     14.591597     -1.272212
  C      -4.460111     15.601755     -0.583392
  C      -3.906919     15.370362      0.696355
  H      -4.884626     12.092175      1.035246
  H      -3.650983     13.851929      2.236705
  H      -5.544093     14.799497     -2.278499
  H      -4.345138     16.593721     -1.047789
  C      -3.093593     16.404077      1.389494
  C      -2.135232     17.127697      0.645249
  C      -1.288510     18.081339      1.225831
  C      -3.240224     16.703816      2.772175
  C      -2.343695     17.616330      3.357232
  C      -1.358345     18.287719      2.620619
  H      -2.044689     16.925050     -0.434209
  H      -2.453895     17.848869      4.429643
  C      -4.459663     16.291686      3.587297
  C      -5.463230     17.431346      3.534805
  H      -4.171523     16.090999      4.638781
  H      -4.921357     15.369647      3.188635
  C      -5.774488     18.214396      4.657406
  C      -6.579921     19.355766      4.522282
  C      -7.091410     19.750578      3.271877
  C      -6.802121     18.950829      2.130809
  C      -6.007561     17.807913      2.292479
  H      -5.364661     17.946609      5.644413
  H      -6.805126     19.974055      5.405153
  H      -5.757173     17.217126      1.398156
  C      -7.815158     21.046254      3.138258
  C      -9.158353     21.126464      2.724013
  C      -9.765949     22.371817      2.505267
  C      -9.051466     23.568062      2.701953
  C      -7.717452     23.489367      3.149096
  C      -7.113465     22.250423      3.369464
  H      -9.730919     20.201309      2.556737
  H      -6.060235     22.198987      3.682981
  H      -7.137509     24.415099      3.287281
  H     -10.813417     22.415043      2.166196
  C      -9.690679     24.901557      2.442293
  Cl     -8.820454     25.852468      1.150082
  H      -9.672234     25.551217      3.339288
  H     -10.738752     24.792997      2.105742
  C      -7.211334     19.369203      0.730050
  C      -6.711930     20.755320      0.364794
  H      -8.314757     19.347643      0.612444
  H      -6.814455     18.616628      0.015021
  C      -5.395823     21.159282      0.669801
  C      -4.985931     22.482181      0.462833
  C      -5.876704     23.439360     -0.070429
  C      -7.578787     21.696335     -0.216966
  C      -7.171100     23.014921     -0.437229
  H      -4.694436     20.435210      1.114715
  H      -3.959492     22.784874      0.724578
  H      -8.614339     21.402446     -0.450169
  H      -7.889190     23.754536     -0.819997
  C      -5.522183     24.873445     -0.186017
  C      -4.951593     25.564845      0.900554
  C      -4.728499     26.951724      0.859615
  C      -5.826169     25.604811     -1.354317
  C      -5.567402     26.976564     -1.419392
  C      -5.033580     27.668960     -0.317189
  H      -4.727210     25.011210      1.826804
  H      -6.255225     25.081841     -2.222323
  H      -5.794048     27.531711     -2.344014
  C      -4.245099     27.691388      2.087716
  C      -3.514943     28.979365      1.785557
  C      -3.776895     29.673239      0.585859
  C      -4.833342     29.165246     -0.365285
  H      -5.801387     29.659424     -0.106008
  H      -4.611179     29.492690     -1.402166
  H      -3.610921     27.028779      2.713176
  H      -5.135265     27.925443      2.721037
  C      -2.597398     29.525672      2.698225
  C      -3.072354     30.857122      0.321342
  C      -2.154506     31.408002      1.235701
  C      -1.926698     30.739943      2.469209
  H      -2.399631     28.982171      3.637631
  H      -3.256729     31.391926     -0.624485
  C      -1.407539     32.635788      0.848025
  C      -0.571233     32.608123     -0.289676
  C       0.202504     33.719060     -0.641432
  C      -1.483683     33.834735      1.587909
  C      -0.705699     34.945090      1.238164
  C       0.160581     34.897620      0.128982
  H      -0.505037     31.682333     -0.880992
  H       0.873828     33.662843     -1.512930
  H      -2.165477     33.897554      2.449616
  H      -0.764319     35.863950      1.842846
  C       1.072015     36.044718     -0.183567
  Cl      2.702695     35.801824      0.602425
  H       0.681546     37.005002      0.202065
  H       1.266402     36.140950     -1.268366
  C      -0.939456     31.243861      3.512753
  C      -0.303047     18.883655      0.406473
  C      -0.377275     19.231251      3.270542
  C      -0.029004     20.410761      2.392043
  H       0.554305     18.651310      3.476171
  H      -0.748486     19.570639      4.258690
  C      -0.019964     20.249323      0.990871
  H      -0.649006     18.967296     -0.643990
  H       0.662410     18.326779      0.362726
  C       0.318148     21.348394      0.183246
  C       0.313112     21.658455      2.934987
  C       0.682748     22.752696      2.129676
  C       0.687914     22.596991      0.716570
  H       0.330209     21.216958     -0.911709
  H       0.295379     21.794239      4.028609
  C       1.106384     24.020747      2.782634
  C       2.197282     24.033743      3.676989
  C       0.452409     25.243165      2.526410
  C       0.887172     26.434775      3.120176
  C       1.981448     26.449674      4.009828
  C       2.626213     25.225232      4.276391
  H       3.489780     25.206608      4.960896
  H       2.738203     23.095786      3.875187
  H      -0.420560     25.259171      1.854741
  H       0.361561     27.372552      2.886617
  C       2.428799     27.725454      4.718205
  C       0.873540     29.553833      4.051377
  C       1.390999     31.281974      2.462398
  C       0.462372     30.690918      3.340252
  H      -1.315893     30.955953      4.514985
  H      -0.893033     32.347767      3.493295
  C       2.159216     28.988649      3.932524
  C       3.108299     29.619068      3.079436
  C       2.677808     30.753280      2.346772
  H       1.118636     32.174016      1.879900
  H       3.386818     31.239698      1.660669
  H       0.166618     29.083785      4.755439
  H       3.498625     27.638197      4.991944
  H       1.872872     27.787979      5.680203
  C       4.552733     29.258511      3.015802
  C       5.068371     27.941344      3.005236
  C       6.454234     27.710408      3.028235
  C       7.374860     28.773746      3.025381
  C       6.872233     30.091603      2.966391
  C       5.491292     30.315204      2.989519
  H       4.385854     27.080480      2.967199
  H       6.825780     26.672644      3.046026
  H       5.130183     31.354543      3.018138
  C       5.439172     20.958589     -0.468585
  C       4.839135     22.293846     -0.075249
  H       5.376908     20.846011     -1.572435
  H       6.520912     20.920260     -0.226599
  C       5.523445     23.298663      0.659646
  C       4.840238     24.504305      0.939116
  C       3.490139     24.679979      0.612950
  C       3.494375     22.505752     -0.418969
  C       2.783277     23.653205     -0.040545
  H       2.959628     21.697506     -0.943670
  H       5.369490     25.297491      1.487546
  H       2.969422     25.601306      0.916918
  C       1.271753     23.663713     -0.203405
  H       0.994967     23.425554     -1.250811
  H       0.875413     24.671013      0.020158
  C       6.903681     23.097305      1.172154
  C       7.241692     21.921509      1.882084
  C       8.544254     21.694931      2.331160
  C       9.564654     22.639959      2.103602
  C       9.222096     23.835622      1.445469
  C       7.915204     24.062406      0.985045
  H       6.465907     21.169921      2.091189
  H       8.775919     20.759756      2.861379
  H      10.000192     24.594493      1.261483
  H       7.680736     24.990073      0.439945
  C      10.985340     22.349071      2.553150
  C      11.120969     22.264568      4.064682
  H      11.656149     23.147178      2.176019
  H      11.315645     21.405183      2.078902
  C      11.237595     23.469951      4.781476
  C      11.301487     23.507529      6.178306
  C      11.243356     22.298718      6.906939
  C      11.117253     21.093442      6.206870
  C      11.060401     21.048444      4.795458
  C      10.912742     19.719367      4.140613
  H      11.089739     20.143664      6.764568
  H      11.282608     24.417055      4.218424
  C      11.850702     19.235924      3.202351
  C      11.675744     17.990591      2.587529
  C      10.564743     17.181602      2.896829
  C       9.639462     17.648738      3.849881
  C       9.814258     18.893099      4.465991
  H      12.738939     19.841413      2.966308
  H      12.416749     17.636113      1.853589
  H       8.760996     17.033560      4.101138
  H       9.074435     19.251730      5.198064
  C      10.344322     15.877364      2.191702
  Cl      9.328530     16.101374      0.693621
  H       9.801172     15.151404      2.825537
  H      11.295660     15.423108      1.856533
  C      11.365747     22.373180      8.415824
  C      12.411539     23.391805      8.816311
  H      11.589621     21.377930      8.848387
  H      10.379161     22.679771      8.841297
  C      12.481400     24.589710      8.069998
  C      11.477220     24.789797      6.956879
  H      11.770731     25.629338      6.295412
  H      10.496622     25.074989      7.407979
  C      13.336042     23.189890      9.854107
  C      14.325813     24.141601     10.133264
  C      14.439255     25.321495      9.364501
  C      13.488809     25.520769      8.336910
  H      13.551556     26.409509      7.692228
  H      15.025341     23.956071     10.961201
  H      13.287998     22.265103     10.451026
  C      15.532600     26.304884      9.571440
  C      16.715588     25.991494     10.274547
  C      17.742376     26.935408     10.388426
  C      15.439415     27.594375      9.003873
  C      16.474107     28.533818      9.063198
  C      17.653829     28.202956      9.781850
  H      18.656402     26.674852     10.945712
  H      16.854026     24.994404     10.716537
  H      14.519911     27.883932      8.481348
  C      18.789109     29.170023      9.912016
  Cl     18.417527     30.520633     11.092545
  H      19.032327     29.675541      8.957823
  H      19.700644     28.675972     10.295453
  C      16.340457     29.876915      8.357876
  C      15.072450     30.046009      7.555241
  H      17.219697     30.004583      7.686960
  H      16.430753     30.686951      9.112183
  C      14.894636     29.380011      6.323608
  C      13.700343     29.494361      5.600580
  C      12.638536     30.298346      6.074112
  C      12.817493     30.958444      7.310015
  C      14.007470     30.829015      8.037073
  H      15.712745     28.759878      5.923131
  C      11.401244     30.507134      5.280560
  C      10.751011     29.457822      4.592283
  C      10.850613     31.804496      5.191356
  C       9.593196     29.685832      3.826516
  C       9.073062     30.997687      3.735090
  C       9.704150     32.041931      4.429263
  H      11.145150     28.431619      4.679311
  H      11.348360     32.639934      5.705850
  H       9.293041     33.061703      4.360824
  C       7.850037     31.238256      2.886515
  H       7.362015     32.195682      3.157580
  H       8.170570     31.352795      1.822148
  C       8.878076     28.575114      3.075607
  H       9.268539     28.555762      2.028633
  H       9.128731     27.582750      3.503112
  H      14.112745     31.345531      9.004284
  H      11.998486     31.570886      7.716628
  H      13.601081     28.986934      4.628528
324
Coordinates from ORCA-job input E -9763.437680938130
  C      -2.558988      9.120852      2.239897
  C      -3.851609      9.268371      2.785768
  C      -4.569431      8.159940      3.247090
  C      -4.013543      6.867805      3.183298
  C      -2.709565      6.720370      2.669222
  C      -1.993742      7.828780      2.202248
  H      -0.973510      7.696598      1.810666
  H      -2.248527      5.720270      2.642590
  H      -4.306757     10.269993      2.815732
  H      -5.583655      8.295622      3.654407
  C      -4.771661      5.681500      3.698546
  Cl     -4.415113      5.377282      5.461067
  H      -4.496540      4.752287      3.164952
  H      -5.865585      5.828916      3.625846
  C      -0.914688     11.621183     -0.108272
  C      -0.667063     12.705562      0.751604
  C      -1.507457     10.425565      0.330405
  C      -0.982440     12.582097      2.119627
  C      -1.843192     10.311555      1.706680
  H      -0.668302     11.728056     -1.178010
  C      -1.560611     11.384488      2.572202
  H      -1.810712     11.276907      3.640203
  C      -1.938561      9.378677     -0.688713
  C      -3.452256      9.407411     -0.826756
  H      -1.609925      8.360911     -0.403941
  H      -1.458683      9.612346     -1.661728
  C      -4.268067      8.316227     -0.478738
  C      -5.658051      8.467068     -0.428974
  C      -6.280264      9.708794     -0.692871
  C      -5.469866     10.796585     -1.111257
  C      -4.079273     10.609269     -1.185891
  H      -3.810321      7.359124     -0.185352
  H      -6.283755      7.620825     -0.106596
  H      -3.452604     11.469738     -1.469096
  C      -7.747101      9.829811     -0.478014
  C      -8.644514      8.927542     -1.088408
  C     -10.022515      9.014603     -0.856391
  C     -10.550091     10.007139     -0.008334
  C      -8.280006     10.816203      0.383923
  C      -9.657083     10.902537      0.613435
  H      -8.250033      8.157452     -1.768823
  H     -10.704732      8.300323     -1.344105
  H      -7.597996     11.512774      0.895708
  H     -10.048415     11.669789      1.300063
  C     -12.022200     10.081804      0.263864
  Cl    -12.476629      9.121881      1.747642
  H     -12.616966      9.662310     -0.569084
  H     -12.354417     11.119077      0.457656
  C      -0.739103     13.738603      3.062010
  C       0.350516     14.680167      2.610544
  H      -0.528493     13.363638      4.085033
  H      -1.678554     14.335778      3.155820
  C      -0.139799     14.015180      0.219617
  C       0.634149     14.821786      1.235671
  H      -1.013996     14.624033     -0.114016
  H       0.471928     13.849946     -0.691084
  C       1.065168     15.465465      3.533572
  C       2.016939     16.398622      3.110385
  C       1.597438     15.754041      0.821315
  C       2.290434     16.574453      1.735370
  H       1.779294     15.879357     -0.257854
  H       0.865417     15.342788      4.610195
  H       2.571742     16.988657      3.855296
  C       3.199972     17.638739      1.246736
  C       3.940497     17.491964      0.051493
  C       4.674900     18.557712     -0.480116
  C       4.701811     19.816123      0.153912
  C       4.007679     19.947830      1.373983
  H       3.935826     16.524313     -0.472642
  H       5.226258     18.417377     -1.423850
  C       3.277862     18.882524      1.910953
  H       3.983251     20.923556      1.882056
  H       2.702378     19.044696      2.834104
  C      -6.006183     12.173817     -1.455373
  C      -5.316311     13.290691     -0.688814
  H      -7.101915     12.218394     -1.290328
  H      -5.865860     12.357126     -2.542935
  C      -4.789683     13.076408      0.601156
  C      -4.092231     14.081914      1.276397
  C      -5.145899     14.568056     -1.257122
  C      -4.461779     15.583773     -0.574994
  C      -3.906066     15.360551      0.704919
  H      -4.873581     12.081149      1.062737
  H      -3.642531     13.851756      2.252552
  H      -5.547506     14.769750     -2.263429
  H      -4.349162     16.572692     -1.046255
  C      -3.095305     16.399318      1.393610
  C      -2.138490     17.123179      0.647229
  C      -1.293355     18.079929      1.225481
  C      -3.242312     16.702426      2.775587
  C      -2.346240     17.616488      3.358548
  C      -1.362445     18.287951      2.620181
  H      -2.047504     16.917461     -0.431598
  H      -2.456928     17.852024      4.430241
  C      -4.462286     16.292882      3.591313
  C      -5.461614     17.436842      3.541346
  H      -4.173954     16.089724      4.642256
  H      -4.927795     15.373146      3.191688
  C      -5.767216     18.220980      4.664738
  C      -6.567943     19.365986      4.531545
  C      -7.081077     19.763008      3.282565
  C      -6.797735     18.962084      2.140624
  C      -6.007900     17.815716      2.300452
  H      -5.355636     17.951893      5.650647
  H      -6.789037     19.984652      5.415172
  H      -5.762523     17.223735      1.405733
  C      -7.800088     21.061499      3.150362
  C      -9.143773     21.146150      2.738749
  C      -9.747321     22.393052      2.518876
  C      -9.027985     23.587026      2.711439
  C      -7.693804     23.504175      3.156883
  C      -7.093740     22.263391      3.378610
  H      -9.720011     20.222788      2.574382
  H      -6.040007     22.208974      3.689854
  H      -7.110930     24.428295      3.292497
  H     -10.795094     22.439342      2.181153
  C      -9.662988     24.922219      2.449085
  Cl     -8.790740     25.866584      1.154260
  H      -9.642386     25.573591      3.344837
  H     -10.711766     24.815686      2.114026
  C      -7.209910     19.381125      0.740927
  C      -6.706190     20.764817      0.372659
  H      -8.313739     19.364148      0.626710
  H      -6.818528     18.626410      0.025096
  C      -5.389138     21.165483      0.676947
  C      -4.974673     22.485967      0.465673
  C      -5.860947     23.444208     -0.072719
  C      -7.569607     21.706903     -0.212542
  C      -7.156911     23.023232     -0.437810
  H      -4.690250     20.440979      1.124757
  H      -3.947232     22.784842      0.725719
  H      -8.606408     21.416562     -0.444436
  H      -7.872064     23.763419     -0.824919
  C      -5.500842     24.876465     -0.195066
  C      -4.935506     25.573073      0.891100
  C      -4.709500     26.959224      0.843446
  C      -5.796040     25.601591     -1.369423
  C      -5.533527     26.972378     -1.441139
  C      -5.005470     27.670155     -0.339591
  H      -4.719914     25.024850      1.822570
  H      -6.222528     25.074709     -2.236313
  H      -5.752528     27.522414     -2.370631
  C      -4.233838     27.705655      2.070571
  C      -3.498519     28.990034      1.765944
  C      -3.749606     29.676604      0.559823
  C      -4.801574     29.165643     -0.394752
  H      -5.770090     29.662709     -0.142767
  H      -4.573169     29.487372     -1.432010
  H      -3.606240     27.045807      2.705638
  H      -5.128287     27.946026      2.695455
  C      -2.585551     29.539437      2.681444
  C      -3.040367     30.857191      0.293031
  C      -2.127280     31.411189      1.210171
  C      -1.908884     30.749734      2.448877
  H      -2.395085     29.000699      3.625065
  H      -3.216042     31.385538     -0.658064
  C      -1.374225     32.634302      0.819937
  C      -0.533340     32.599635     -0.314026
  C       0.245164     33.706959     -0.666469
  C      -1.450438     33.836367      1.554871
  C      -0.668141     34.943323      1.204151
  C       0.201763     34.889304      0.098029
  H      -0.466050     31.670891     -0.900527
  H       0.917993     33.646986     -1.536512
  H      -2.135718     33.903398      2.413458
  H      -0.728664     35.865681      1.803246
  C       1.119415     36.031476     -0.213869
  Cl      2.746231     35.783515      0.579077
  H       0.731907     36.994534      0.167709
  H       1.319046     36.123970     -1.297995
  C      -0.926543     31.256529      3.495835
  C      -0.312365     18.885572      0.403792
  C      -0.382632     19.234101      3.267772
  C      -0.039945     20.414380      2.388247
  H       0.551230     18.656846      3.470210
  H      -0.752206     19.572349      4.256866
  C      -0.033746     20.252886      0.987095
  H      -0.660793     18.967469     -0.646002
  H       0.655410     18.332839      0.357911
  C       0.295718     21.354166      0.178407
  C       0.301418     21.662356      2.930470
  C       0.664801     22.757695      2.124127
  C       0.662747     22.604180      0.711038
  H       0.302578     21.223777     -0.916699
  H       0.288588     21.797286      4.024228
  C       1.091558     24.024824      2.777261
  C       2.188724     24.035575      3.664020
  C       0.434228     25.247273      2.530699
  C       0.871572     26.436905      3.125886
  C       1.971534     26.449863      4.008126
  C       2.619892     25.225287      4.265598
  H       3.489035     25.205444      4.942943
  H       2.730886     23.096930      3.855775
  H      -0.443903     25.265608      1.866577
  H       0.343854     27.374807      2.897661
  C       2.420925     27.724044      4.718001
  C       0.876615     29.559260      4.043520
  C       1.409370     31.285876      2.457774
  C       0.474019     30.698400      3.330694
  H      -1.308455     30.973199      4.497249
  H      -0.876969     32.360230      3.472468
  C       2.160333     28.988257      3.930854
  C       3.115579     29.614285      3.081691
  C       2.693889     30.750863      2.347761
  H       1.143967     32.179024      1.873735
  H       3.408793     31.234695      1.665942
  H       0.164042     29.092710      4.744185
  H       3.488937     27.632208      4.996965
  H       1.860298     27.789202      5.677112
  C       4.558249     29.247517      3.023876
  C       5.067281     27.927835      3.017717
  C       6.451803     27.689590      3.045078
  C       7.377785     28.749500      3.042076
  C       6.880932     30.069644      2.978201
  C       5.501288     30.299748      2.996599
  H       4.379843     27.070878      2.980198
  H       6.817410     26.649373      3.064652
  H       5.144460     31.340696      3.020547
  C       5.414923     20.996173     -0.488108
  C       4.809807     22.329352     -0.095001
  H       5.347786     20.880907     -1.591412
  H       6.498088     20.964038     -0.251850
  C       5.492501     23.340854      0.632680
  C       4.805389     24.545152      0.909858
  C       3.452272     24.711434      0.589505
  C       3.462813     22.532768     -0.433414
  C       2.747534     23.677549     -0.055998
  H       2.930127     21.720031     -0.953208
  H       5.334230     25.343713      1.452887
  H       2.928142     25.631564      0.890674
  C       1.234998     23.676511     -0.210226
  H       0.954011     23.438235     -1.256492
  H       0.831860     24.680198      0.017189
  C       6.873415     23.144359      1.143819
  C       7.211685     21.973944      1.862216
  C       8.514374     21.750317      2.311503
  C       9.535049     22.692533      2.074945
  C       9.192241     23.883508      1.408464
  C       7.884953     24.107644      0.948267
  H       6.435657     21.224883      2.079043
  H       8.745926     20.818637      2.847269
  H       9.970417     24.640758      1.218238
  H       7.650440     25.031197      0.396287
  C      10.956794     22.403739      2.521741
  C      11.095007     22.295961      4.031155
  H      11.622683     23.211471      2.156615
  H      11.292997     21.469302      2.032744
  C      11.211460     23.490312      4.766130
  C      11.278801     23.506532      6.163089
  C      11.225141     22.286774      6.873359
  C      11.098055     21.092205      6.155310
  C      11.037378     21.068699      4.743425
  C      10.881622     19.749896      4.069356
  H      11.074349     20.133844      6.698235
  H      11.251379     24.446196      4.217670
  C      11.808292     19.277799      3.114531
  C      11.621430     18.043413      2.481173
  C      10.509989     17.234259      2.788273
  C       9.596625     17.689262      3.758588
  C       9.783161     18.922584      4.392845
  H      12.696530     19.883354      2.878757
  H      12.353220     17.697804      1.733926
  H       8.718169     17.073616      4.008596
  H       9.053261     19.272184      5.139097
  C      10.274971     15.944152      2.062297
  Cl      9.242675     16.200773      0.580716
  H       9.735377     15.209457      2.689033
  H      11.219840     15.491333      1.707477
  C      11.348798     22.338798      8.383108
  C      12.395109     23.351544      8.797003
  H      11.573405     21.337305      8.800713
  H      10.362709     22.639158      8.813856
  C      12.463044     24.560338      8.068617
  C      11.456656     24.776521      6.960803
  H      11.748929     25.625844      6.311797
  H      10.477066     25.055339      7.418259
  C      13.321692     23.134856      9.829977
  C      14.310967     24.083357     10.121767
  C      14.421427     25.275400      9.371256
  C      13.469625     25.488484      8.347941
  H      13.529559     26.387307      7.717082
  H      15.011867     23.886041     10.945785
  H      13.275775     22.200858     10.412512
  C      15.512401     26.258365      9.592886
  C      16.692888     25.940594     10.297828
  C      17.716621     26.885850     10.426902
  C      15.418560     27.553812      9.039438
  C      16.450373     28.495299      9.113754
  C      17.627875     28.159521      9.833552
  H      18.629008     26.621323     10.984990
  H      16.831464     24.939635     10.730863
  H      14.500493     27.846554      8.516298
  C      18.759136     29.128661      9.980883
  Cl     18.375105     30.466420     11.171958
  H      19.007248     29.644474      9.033508
  H      19.669627     28.633916     10.365857
  C      16.313763     29.846997      8.426096
  C      15.051588     30.017643      7.614947
  H      17.197705     29.990606      7.764703
  H      16.391803     30.646922      9.192555
  C      14.884281     29.355151      6.379960
  C      13.694960     29.468632      5.648928
  C      12.628171     30.268589      6.117559
  C      12.796275     30.925079      7.356887
  C      13.981307     30.796163      8.092079
  H      15.706140     28.736803      5.984476
  C      11.396295     30.477228      5.315820
  C      10.748358     29.427927      4.624997
  C      10.849697     31.775687      5.221149
  C       9.595863     29.657143      3.851660
  C       9.080443     30.970495      3.754855
  C       9.709142     32.014517      4.451154
  H      11.141183     28.401689      4.714923
  H      11.346624     32.610465      5.737492
  H       9.300629     33.035019      4.378317
  C       7.863823     31.211899      2.897623
  H       7.378451     32.172972      3.160270
  H       8.191546     31.318634      1.834649
  C       8.880741     28.546982      3.098433
  H       9.274840     28.526585      2.052840
  H       9.127602     27.554095      3.527007
  H      14.077484     31.307550      9.062925
  H      11.972878     31.534866      7.758584
  H      13.603379     28.963947      4.674710
324
Coordinates from ORCA-job input E -9763.437741592856
  C      -2.514297      9.116908      2.258774
  C      -3.804395      9.257746      2.812542
  C      -4.514657      8.145406      3.276123
  C      -3.953195      6.855906      3.207391
  C      -2.651167      6.715367      2.686540
  C      -1.943135      7.827642      2.216763
  H      -0.924370      7.700531      1.819689
  H      -2.185691      5.717417      2.655794
  H      -4.264046     10.257195      2.846546
  H      -5.527139      8.275998      3.689452
  C      -4.703184      5.665270      3.724459
  Cl     -4.338564      5.361674      5.485564
  H      -4.425072      4.737882      3.189225
  H      -5.798180      5.806797      3.656029
  C      -0.896998     11.628202     -0.097210
  C      -0.648756     12.712771      0.762207
  C      -1.480963     10.429195      0.343800
  C      -0.955412     12.586485      2.131945
  C      -1.807823     10.311924      1.722118
  H      -0.656757     11.737038     -1.168175
  C      -1.525081     11.385574      2.586859
  H      -1.768185     11.275834      3.656288
  C      -1.913408      9.381770     -0.674155
  C      -3.428017      9.402841     -0.803306
  H      -1.577409      8.365323     -0.393155
  H      -1.440531      9.619145     -1.649758
  C      -4.236600      8.306065     -0.456318
  C      -5.627015      8.449919     -0.398617
  C      -6.256536      9.689959     -0.652913
  C      -5.453825     10.783734     -1.070963
  C      -4.062807     10.603295     -1.153946
  H      -3.772523      7.349776     -0.170401
  H      -6.247109      7.599379     -0.076612
  H      -3.441695     11.467773     -1.437136
  C      -7.723004      9.802114     -0.430995
  C      -8.618048      8.899714     -1.044651
  C      -9.995111      8.974912     -0.803163
  C     -10.524130      9.955254      0.057998
  C      -8.257073     10.774952      0.445647
  C      -9.633174     10.849069      0.685022
  H      -8.222378      8.137343     -1.733042
  H     -10.675723      8.262103     -1.295298
  H      -7.575915     11.467026      0.964616
  H     -10.025631     11.606954      1.381373
  C     -11.994612     10.015006      0.342049
  Cl    -12.429279      9.038156      1.820772
  H     -12.592168      9.597612     -0.489968
  H     -12.334329     11.047585      0.547629
  C      -0.710813     13.742735      3.074338
  C       0.369808     14.691578      2.616269
  H      -0.490438     13.367198      4.095134
  H      -1.652880     14.334549      3.176580
  C      -0.131561     14.025353      0.227815
  C       0.643705     14.836076      1.239684
  H      -1.010489     14.630251     -0.100589
  H       0.475935     13.863839     -0.686430
  C       1.085637     15.480757      3.535153
  C       2.028800     16.420228      3.106467
  C       1.598584     15.774614      0.819728
  C       2.292253     16.598852      1.729852
  H       1.772633     15.901759     -0.260551
  H       0.893469     15.356328      4.612988
  H       2.584808     17.013115      3.848203
  C       3.193109     17.668029      1.235905
  C       3.931435     17.523625      0.038928
  C       4.656923     18.593295     -0.496910
  C       4.675765     19.853801      0.133624
  C       3.985011     19.983152      1.355631
  H       3.932516     16.554724     -0.482982
  H       5.206794     18.454588     -1.441767
  C       3.264976     18.913547      1.897432
  H       3.954281     20.959828      1.861510
  H       2.691861     19.073331      2.822365
  C      -5.999411     12.158881     -1.409570
  C      -5.309898     13.278737     -0.647083
  H      -7.094171     12.197958     -1.237174
  H      -5.867464     12.343603     -2.497986
  C      -4.777115     13.067009      0.640932
  C      -4.081199     14.075676      1.312917
  C      -5.145470     14.556046     -1.217222
  C      -4.461952     15.574716     -0.538665
  C      -3.901172     15.354395      0.739291
  H      -4.855054     12.071815      1.103615
  H      -3.626135     13.849177      2.287512
  H      -5.550679     14.755143     -2.222630
  H      -4.354577     16.563550     -1.011716
  C      -3.093224     16.397392      1.424641
  C      -2.141571     17.123873      0.674447
  C      -1.301163     18.087493      1.247863
  C      -3.240274     16.704805      2.805805
  C      -2.348010     17.625375      3.384170
  C      -1.368791     18.299507      2.641992
  H      -2.052516     16.916200     -0.404191
  H      -2.458771     17.864823      4.455023
  C      -4.460559     16.297542      3.621894
  C      -5.458973     17.441897      3.565435
  H      -4.173945     16.098869      4.674206
  H      -4.925607     15.376270      3.225154
  C      -5.766777     18.230197      4.685225
  C      -6.563685     19.377105      4.545508
  C      -7.070437     19.772010      3.293348
  C      -6.784087     18.967249      2.154671
  C      -5.998851     17.818885      2.321118
  H      -5.358932     17.963615      5.673397
  H      -6.786775     19.998773      5.426538
  H      -5.749848     17.224689      1.428852
  C      -7.783928     21.072721      3.153784
  C      -9.124920     21.160945      2.734168
  C      -9.721586     22.409411      2.503815
  C      -8.997808     23.601292      2.693197
  C      -7.666637     23.514911      3.147134
  C      -7.073492     22.272751      3.379569
  H      -9.703993     20.239090      2.571246
  H      -6.021155     22.215729      3.695057
  H      -7.080877     24.437446      3.281632
  H     -10.767078     22.458471      2.159351
  C      -9.626402     24.938145      2.421386
  Cl     -8.736285     25.879671      1.137612
  H      -9.616202     25.589746      3.317279
  H     -10.671317     24.833047      2.073912
  C      -7.189007     19.384101      0.752363
  C      -6.678040     20.764611      0.381788
  H      -8.292488     19.372039      0.634317
  H      -6.798541     18.625523      0.040079
  C      -5.361749     21.163473      0.692369
  C      -4.941796     22.481815      0.475753
  C      -5.821727     23.439130     -0.074930
  C      -7.534896     21.705793     -0.214215
  C      -7.116780     23.019442     -0.444984
  H      -4.667702     20.439469      1.148640
  H      -3.914252     22.778395      0.739468
  H      -8.571252     21.417402     -0.450671
  H      -7.827505     23.758559     -0.842191
  C      -5.457630     24.869808     -0.206183
  C      -4.901982     25.576244      0.878782
  C      -4.675835     26.962202      0.820745
  C      -5.742088     25.584536     -1.389576
  C      -5.478519     26.954532     -1.471454
  C      -4.960986     27.662470     -0.371399
  H      -4.696031     25.036658      1.817534
  H      -6.161235     25.050025     -2.255402
  H      -5.689437     27.496073     -2.407806
  C      -4.213302     27.720379      2.045800
  C      -3.475642     29.002650      1.736481
  C      -3.714655     29.677524      0.521343
  C      -4.757135     29.157496     -0.438628
  H      -5.728284     29.656521     -0.201014
  H      -4.518491     29.469490     -1.476570
  H      -3.592059     27.067201      2.693774
  H      -5.114289     27.966187      2.659110
  C      -2.571536     29.561311      2.655582
  C      -3.003175     30.855959      0.250354
  C      -2.099283     31.419069      1.170964
  C      -1.892346     30.769378      2.417704
  H      -2.390398     29.031780      3.606243
  H      -3.169526     31.375079     -0.707640
  C      -1.343573     32.639033      0.776058
  C      -0.491227     32.595266     -0.348788
  C       0.287990     33.701265     -0.703952
  C      -1.430980     33.848199      1.498376
  C      -0.648425     34.953939      1.144695
  C       0.232919     34.891167      0.047921
  H      -0.415528     31.660788     -0.925101
  H       0.970078     33.635274     -1.566334
  H      -2.126393     33.920896      2.348323
  H      -0.718215     35.882685      1.732830
  C       1.150275     36.032923     -0.266103
  Cl      2.769301     35.800624      0.547344
  H       0.755177     36.998767      0.100405
  H       1.361975     36.114161     -1.348846
  C      -0.914206     31.282343      3.465685
  C      -0.328402     18.896823      0.420280
  C      -0.394424     19.254304      3.284924
  C      -0.057949     20.432578      2.399865
  H       0.542266     18.683153      3.491132
  H      -0.766524     19.595625      4.272040
  C      -0.055898     20.267123      0.999250
  H      -0.682513     18.974647     -0.627972
  H       0.642664     18.350007      0.370412
  C       0.263166     21.368277      0.185875
  C       0.282299     21.683030      2.937102
  C       0.638155     22.777480      2.126098
  C       0.627118     22.621345      0.713284
  H       0.264635     21.235167     -0.908936
  H       0.275509     21.820384      4.030624
  C       1.068923     24.045113      2.775388
  C       2.172389     24.054636      3.654387
  C       0.411937     25.268329      2.532324
  C       0.855618     26.457490      3.124421
  C       1.960375     26.468567      4.001008
  C       2.609048     25.243359      4.253541
  H       3.482171     25.222032      4.925709
  H       2.714524     23.115121      3.841881
  H      -0.469361     25.289114      1.871985
  H       0.327647     27.395877      2.899334
  C       2.415405     27.742221      4.708486
  C       0.881964     29.582142      4.024030
  C       1.428268     31.304880      2.438851
  C       0.486610     30.721776      3.308150
  H      -1.299922     31.004555      4.467188
  H      -0.863231     32.385878      3.436857
  C       2.163894     29.006020      3.918107
  C       3.125835     29.627563      3.073265
  C       2.711755     30.765129      2.336249
  H       1.168576     32.197568      1.851463
  H       3.432044     31.245228      1.657408
  H       0.164130     29.119507      4.721951
  H       3.482051     27.645062      4.990334
  H       1.852676     27.813134      5.666003
  C       4.567793     29.255684      3.023896
  C       5.071679     27.933784      3.015463
  C       6.455278     27.689772      3.050406
  C       7.385284     28.746252      3.058933
  C       6.894077     30.068537      2.995901
  C       5.515138     30.304300      3.005556
  H       4.380510     27.080326      2.968678
  H       6.817274     26.648252      3.067878
  H       5.161842     31.346495      3.029079
  C       5.378626     21.036904     -0.514093
  C       4.769124     22.368259     -0.121057
  H       5.305300     20.918982     -1.616779
  H       6.463379     21.010606     -0.284491
  C       5.451618     23.385572      0.598575
  C       4.760896     24.587886      0.875869
  C       3.404841     24.746455      0.564403
  C       3.418674     22.564003     -0.450647
  C       2.700341     23.706413     -0.071617
  H       2.885899     21.746569     -0.963012
  H       5.289610     25.390551      1.412558
  H       2.878471     25.665053      0.866475
  C       1.186550     23.695734     -0.213772
  H       0.898630     23.454602     -1.257562
  H       0.778454     24.697097      0.015314
  C       6.834541     23.193636      1.105836
  C       7.174300     22.027324      1.830129
  C       8.477825     21.805784      2.277826
  C       9.498677     22.745706      2.033474
  C       9.154642     23.932839      1.360246
  C       7.846146     24.155152      0.901973
  H       6.398861     21.279036      2.051757
  H       8.709185     20.877412      2.818940
  H       9.932707     24.688604      1.163612
  H       7.610729     25.075910      0.345698
  C      10.922435     22.458489      2.475604
  C      11.064358     22.323082      3.981926
  H      11.582682     23.276917      2.124280
  H      11.264763     21.535173      1.969788
  C      11.183735     23.503695      4.738487
  C      11.253748     23.494252      6.135282
  C      11.197889     22.262174      6.823641
  C      11.066112     21.081122      6.084369
  C      11.003315     21.083276      4.672287
  C      10.831346     19.777974      3.975352
  H      11.040227     20.113090      6.609744
  H      11.222153     24.469686      4.207704
  C      11.742091     19.315763      3.000774
  C      11.533037     18.097782      2.342782
  C      10.414898     17.295818      2.644079
  C       9.518860     17.739104      3.635832
  C       9.727620     18.955678      4.294668
  H      12.635703     19.914822      2.768870
  H      12.251026     17.760681      1.578451
  H       8.636503     17.127810      3.882802
  H       9.010452     19.297986      5.056531
  C      10.153275     16.027399      1.889544
  Cl      9.101204     16.334997      0.431616
  H       9.614236     15.283379      2.505693
  H      11.086794     15.572601      1.508147
  C      11.320752     22.287489      8.334164
  C      12.369582     23.290060      8.766378
  H      11.541291     21.278368      8.735266
  H      10.335239     22.584844      8.768076
  C      12.439623     24.511780      8.060267
  C      11.435252     24.749100      6.955501
  H      11.730645     25.608765      6.321812
  H      10.456013     25.024084      7.416666
  C      13.294754     23.053990      9.796514
  C      14.283976     23.996776     10.107043
  C      14.395288     25.203008      9.379339
  C      13.445831     25.434305      8.358072
  H      13.506430     26.344913      7.744365
  H      14.983268     23.784063     10.928638
  H      13.246963     22.109785     10.362221
  C      15.484541     26.182959      9.621407
  C      16.662204     25.856394     10.326871
  C      17.683275     26.801597     10.476031
  C      15.390648     27.487157      9.089018
  C      16.419502     28.429958      9.184014
  C      17.594597     28.084743      9.903293
  H      18.593438     26.530196     11.034493
  H      16.800732     24.849024     10.744852
  H      14.473253     27.786792      8.568801
  C      18.722501     29.054084     10.072618
  Cl     18.328149     30.371478     11.282821
  H      18.974559     29.585854      9.135141
  H      19.632185     28.555668     10.454794
  C      16.282110     29.792441      8.518283
  C      15.026506     29.970800      7.698515
  H      17.171247     29.952644      7.867702
  H      16.349206     30.579312      9.299257
  C      14.870065     29.320205      6.455745
  C      13.686610     29.439386      5.716299
  C      12.615466     30.234138      6.183759
  C      12.772692     30.879257      7.430462
  C      13.951806     30.744101      8.174221
  H      15.695694     28.706133      6.061381
  C      11.390467     30.449882      5.373263
  C      10.745706     29.405947      4.671330
  C      10.848594     31.750426      5.280779
  C       9.600626     29.642386      3.889356
  C       9.090192     30.957708      3.794839
  C       9.715662     31.996481      4.501826
  H      11.136575     28.378740      4.757852
  H      11.344365     32.580949      5.805073
  H       9.310236     33.018379      4.430908
  C       7.882734     31.206696      2.926735
  H       7.399264     32.169519      3.186459
  H       8.221197     31.313590      1.867131
  C       8.887436     28.538493      3.124842
  H       9.288425     28.523570      2.081731
  H       9.128761     27.542261      3.548874
  H      14.039710     31.246177      9.150703
  H      11.945437     31.485133      7.830198
  H      13.603222     28.944324      4.736396
324
Coordinates from ORCA-job input E -9763.437900793042
  C      -2.477485      9.126199      2.311630
  C      -3.767011      9.264211      2.867854
  C      -4.472964      8.150673      3.335235
  C      -3.907590      6.862688      3.268243
  C      -2.605849      6.725398      2.746021
  C      -1.902133      7.838841      2.272342
  H      -0.883612      7.713710      1.874007
  H      -2.137004      5.728965      2.716920
  H      -4.229790     10.262248      2.901076
  H      -5.485004      8.279161      3.750323
  C      -4.652747      5.670590      3.788967
  Cl     -4.287524      5.374942      5.551505
  H      -4.370281      4.742502      3.257266
  H      -5.748374      5.806819      3.720200
  C      -0.871654     11.634065     -0.056166
  C      -0.627151     12.723382      0.798693
  C      -1.450387     10.434501      0.390209
  C      -0.932865     12.601291      2.168946
  C      -1.776914     10.321940      1.769086
  H      -0.632245     11.739343     -1.127679
  C      -1.497996     11.400343      2.628821
  H      -1.739532     11.293906      3.698980
  C      -1.876610      9.378918     -0.621900
  C      -3.391484      9.387577     -0.749788
  H      -1.532300      8.366603     -0.335912
  H      -1.406342      9.614084     -1.599369
  C      -4.192121      8.287321     -0.395956
  C      -5.583636      8.421402     -0.339907
  C      -6.222210      9.655043     -0.602180
  C      -5.427276     10.752205     -1.026888
  C      -4.035024     10.581233     -1.108111
  H      -3.721010      7.336135     -0.104603
  H      -6.198172      7.568654     -0.013216
  H      -3.419912     11.448159     -1.396851
  C      -7.689518      9.756980     -0.380341
  C      -8.577441      8.844283     -0.989258
  C      -9.954507      8.906157     -0.743513
  C     -10.490862      9.883517      0.116565
  C      -8.230754     10.725693      0.496661
  C      -9.606734     10.786199      0.740513
  H      -8.175907      8.081612     -1.673911
  H     -10.629811      8.187299     -1.234180
  H      -7.554123     11.421380      1.016679
  H     -10.005063     11.542782      1.434954
  C     -11.960643      9.926745      0.407707
  Cl    -12.376312      8.953399      1.894477
  H     -12.556774      9.496846     -0.418940
  H     -12.312492     10.956129      0.608860
  C      -0.693019     13.761663      3.107291
  C       0.379445     14.717185      2.644132
  H      -0.467758     13.390725      4.128714
  H      -1.638954     14.347373      3.210257
  C      -0.115222     14.035456      0.258264
  C       0.654076     14.856200      1.267100
  H      -0.995996     14.634765     -0.075122
  H       0.494851     13.872021     -0.653962
  C       1.087124     15.517866      3.559361
  C       2.022957     16.462702      3.126844
  C       1.602240     15.800143      0.843191
  C       2.288405     16.634717      1.749777
  H       1.778298     15.921188     -0.237498
  H       0.894164     15.398347      4.637641
  H       2.572628     17.064387      3.866290
  C       3.182558     17.707442      1.251672
  C       3.930511     17.559239      0.060941
  C       4.647243     18.631663     -0.480933
  C       4.646036     19.899536      0.135627
  C       3.946895     20.033051      1.352105
  H       3.945482     16.585575     -0.451869
  H       5.205898     18.489027     -1.420025
  C       3.236947     18.960000      1.901106
  H       3.900999     21.014059      1.848271
  H       2.655839     19.122511      2.820624
  C      -5.982005     12.122153     -1.371301
  C      -5.296342     13.249425     -0.616795
  H      -7.076530     12.156367     -1.196503
  H      -5.853403     12.301120     -2.461140
  C      -4.757785     13.045401      0.670104
  C      -4.065809     14.060569      1.336041
  C      -5.139908     14.524852     -1.192850
  C      -4.459543     15.550008     -0.520782
  C      -3.894432     15.338058      0.756695
  H      -4.827275     12.051526      1.136850
  H      -3.606140     13.842701      2.310556
  H      -5.547939     14.717077     -2.198484
  H      -4.359664     16.536730     -0.999507
  C      -3.089726     16.387882      1.435693
  C      -2.147350     17.120109      0.679203
  C      -1.313055     18.093302      1.245828
  C      -3.233623     16.699116      2.816699
  C      -2.346176     17.628200      3.387989
  C      -1.375638     18.308119      2.639628
  H      -2.061964     16.910797     -0.399399
  H      -2.454726     17.870961      4.458358
  C      -4.451950     16.291988      3.635687
  C      -5.449326     17.437250      3.576100
  H      -4.165045     16.096419      4.688556
  H      -4.917059     15.369752      3.241169
  C      -5.760736     18.227474      4.693562
  C      -6.552931     19.377480      4.548452
  C      -7.050014     19.773972      3.292755
  C      -6.759506     18.966844      2.156558
  C      -5.980775     17.815449      2.328770
  H      -5.359938     17.960069      5.684426
  H      -6.777919     20.001051      5.427645
  H      -5.728437     17.219829      1.438278
  C      -7.755603     21.078432      3.146340
  C      -9.092077     21.173264      2.714298
  C      -9.678467     22.424400      2.471746
  C      -8.948801     23.612261      2.661208
  C      -7.623053     23.519762      3.130216
  C      -7.039999     22.275198      3.374535
  H      -9.674907     20.254037      2.549981
  H      -5.991063     22.213864      3.700329
  H      -7.033290     24.439556      3.266022
  H     -10.720198     22.478401      2.116647
  C      -9.566960     24.951902      2.376291
  Cl     -8.638397     25.896031      1.123597
  H      -9.582390     25.599128      3.275481
  H     -10.601801     24.849248      1.999117
  C      -7.152008     19.383796      0.751063
  C      -6.629602     20.759754      0.379352
  H      -8.254803     19.380190      0.626749
  H      -6.763169     18.620459      0.043004
  C      -5.313801     21.154337      0.698224
  C      -4.885275     22.469362      0.476868
  C      -5.755813     23.427040     -0.087157
  C      -7.476828     21.701796     -0.229038
  C      -7.050056     23.011457     -0.464519
  H      -4.626753     20.430477      1.164824
  H      -3.857377     22.760873      0.746302
  H      -8.513018     21.418008     -0.471562
  H      -7.754220     23.750652     -0.873097
  C      -5.387158     24.855700     -0.223882
  C      -4.843815     25.569633      0.862260
  C      -4.622194     26.955933      0.798551
  C      -5.661344     25.562383     -1.414427
  C      -5.401277     26.932388     -1.501812
  C      -4.898001     27.648286     -0.400473
  H      -4.647156     25.036374      1.806638
  H      -6.071398     25.021830     -2.280862
  H      -5.604460     27.467511     -2.443563
  C      -4.177309     27.724415      2.023886
  C      -3.438575     29.005930      1.712801
  C      -3.669004     29.672281      0.491539
  C      -4.701662     29.143647     -0.473834
  H      -5.677097     29.639153     -0.246853
  H      -4.455971     29.451261     -1.511443
  H      -3.563414     27.078619      2.685949
  H      -5.087028     27.973981      2.622605
  C      -2.542553     29.572534      2.635168
  C      -2.958164     30.849921      0.218117
  C      -2.062777     31.421739      1.142023
  C      -1.863051     30.779998      2.393902
  H      -2.367944     29.049665      3.590720
  H      -3.120146     31.362421     -0.744150
  C      -1.310743     32.643228      0.744488
  C      -0.450219     32.599658     -0.373725
  C       0.320445     33.711142     -0.730984
  C      -1.414929     33.856248      1.458889
  C      -0.641641     34.967439      1.102690
  C       0.247754     34.905615      0.011941
  H      -0.362423     31.661987     -0.943129
  H       1.010589     33.646846     -1.587081
  H      -2.118323     33.925820      2.302503
  H      -0.724029     35.900046      1.683024
  C       1.152158     36.056426     -0.306506
  Cl      2.767041     35.860586      0.524044
  H       0.739227     37.020598      0.044523
  H       1.373017     36.127800     -1.388118
  C      -0.887323     31.296479      3.442177
  C      -0.355363     18.910781      0.408650
  C      -0.407438     19.272308      3.277455
  C      -0.077443     20.448333      2.386907
  H       0.531999     18.707824      3.490248
  H      -0.783589     19.617743      4.261674
  C      -0.087019     20.282448      0.986565
  H      -0.723346     18.988200     -0.634889
  H       0.619130     18.371874      0.344842
  C       0.219669     21.385375      0.170182
  C       0.266062     21.699255      2.920913
  C       0.612811     22.794314      2.107011
  C       0.583998     22.639709      0.694176
  H       0.210399     21.252546     -0.924601
  H       0.271306     21.835686      4.014574
  C       1.053965     24.058952      2.754240
  C       2.166785     24.061851      3.621480
  C       0.400271     25.285394      2.519871
  C       0.854410     26.470768      3.111784
  C       1.965571     26.474138      3.980517
  C       2.613406     25.246357      4.221010
  H       3.491255     25.218950      4.886740
  H       2.707616     23.119665      3.798903
  H      -0.485086     25.314159      1.864773
  H       0.326822     27.411166      2.895039
  C       2.429311     27.744218      4.688395
  C       0.902604     29.591195      4.004598
  C       1.458590     31.313067      2.421648
  C       0.512792     30.732519      3.288159
  H      -1.275198     31.022696      4.443926
  H      -0.833000     32.399877      3.410124
  C       2.182669     29.010590      3.901241
  C       3.149442     29.631048      3.061542
  C       2.741337     30.770490      2.324332
  H       1.202765     32.206616      1.833814
  H       3.465917     31.247924      1.648066
  H       0.181052     29.131712      4.700778
  H       3.496287     27.641865      4.966821
  H       1.869806     27.817062      5.647664
  C       4.590704     29.255560      3.019562
  C       5.091695     27.932279      3.004905
  C       6.474867     27.684855      3.049310
  C       7.406548     28.740136      3.076772
  C       6.917918     30.063670      3.020417
  C       5.539673     30.302246      3.018507
  H       4.397941     27.081580      2.947636
  H       6.835290     26.642569      3.059512
  H       5.187199     31.344622      3.047427
  C       5.339790     21.083130     -0.521401
  C       4.720389     22.414848     -0.144181
  H       5.268864     20.953792     -1.623047
  H       6.424335     21.066869     -0.289976
  C       5.399352     23.446891      0.556770
  C       4.703596     24.649085      0.821308
  C       3.345125     24.794658      0.514583
  C       3.367544     22.598035     -0.470711
  C       2.644291     23.741163     -0.103709
  H       2.836779     21.770307     -0.968460
  H       5.230318     25.462307      1.344083
  H       2.814140     25.713371      0.808074
  C       1.130124     23.716978     -0.237523
  H       0.838091     23.471984     -1.279368
  H       0.713700     24.714972     -0.008309
  C       6.783942     23.264674      1.061106
  C       7.121820     22.111428      1.806185
  C       8.426066     21.892590      2.251683
  C       9.450352     22.821948      1.983671
  C       9.108716     23.996667      1.287232
  C       7.798548     24.217109      0.832572
  H       6.345005     21.368454      2.040821
  H       8.653713     20.975286      2.812031
  H       9.889220     24.744814      1.071966
  H       7.564648     25.127489      0.258855
  C      10.877793     22.532541      2.411783
  C      11.032411     22.359913      3.912556
  H      11.531259     23.362305      2.074724
  H      11.222433     21.623041      1.882939
  C      11.168816     23.520338      4.696974
  C      11.251825     23.475604      6.092259
  C      11.189979     22.228472      6.751900
  C      11.039508     21.067063      5.985574
  C      10.962369     21.104278      4.574395
  C      10.743794     19.820651      3.849323
  H      11.005255     20.086917      6.487460
  H      11.211153     24.499080      4.190099
  C      11.607219     19.365988      2.829453
  C      11.335008     18.181557      2.133916
  C      10.200951     17.405590      2.443123
  C       9.356842     17.835733      3.485024
  C       9.627726     19.019071      4.180002
  H      12.512009     19.944108      2.588331
  H      12.013490     17.852058      1.331155
  H       8.464522     17.242561      3.740242
  H       8.947500     19.356443      4.977177
  C       9.863825     16.183697      1.643061
  Cl      8.757052     16.597142      0.252976
  H       9.328217     15.427867      2.247725
  H      10.763004     15.719232      1.196408
  C      11.320598     22.218745      8.262306
  C      12.374656     23.207144      8.715333
  H      11.535849     21.200003      8.641148
  H      10.338073     22.513945      8.704101
  C      12.444989     24.445381      8.039288
  C      11.443010     24.709360      6.940308
  H      11.743352     25.580266      6.325656
  H      10.465484     24.983119      7.406961
  C      13.298904     22.948024      9.741153
  C      14.284610     23.886327     10.077329
  C      14.393189     25.111536      9.380742
  C      13.447031     25.363301      8.362097
  H      13.506424     26.288768      7.770930
  H      14.982490     23.654904     10.895140
  H      13.250434     21.991257     10.285259
  C      15.472470     26.093849      9.653866
  C      16.647739     25.762173     10.360015
  C      17.658616     26.712930     10.539365
  C      15.370713     27.409423      9.151611
  C      16.389260     28.359908      9.277289
  C      17.561975     28.008875      9.997555
  H      18.566570     26.437309     11.099358
  H      16.793208     24.746295     10.754518
  H      14.453758     27.712327      8.632852
  C      18.678585     28.984737     10.200006
  Cl     18.259907     30.268962     11.437342
  H      18.933300     29.541305      9.277760
  H      19.589999     28.486678     10.578519
  C      16.243588     29.735889      8.642304
  C      14.995351     29.920419      7.812609
  H      17.137884     29.922695      8.005955
  H      16.293254     30.504546      9.442585
  C      14.856755     29.290323      6.557133
  C      13.680733     29.414691      5.807110
  C      12.600210     30.195668      6.275978
  C      12.739619     30.820895      7.534792
  C      13.911217     30.679669      8.289319
  H      15.690631     28.688238      6.161572
  C      11.383778     30.419134      5.454742
  C      10.748664     29.382791      4.732930
  C      10.841380     31.719822      5.372268
  C       9.613339     29.626650      3.939993
  C       9.103836     30.942277      3.854691
  C       9.718338     31.973575      4.581843
  H      11.140771     28.356164      4.811541
  H      11.329878     32.544082      5.913015
  H       9.312240     32.995658      4.517484
  C       7.909474     31.200208      2.971225
  H       7.424345     32.162588      3.229323
  H       8.263550     31.311571      1.917200
  C       8.908760     28.531942      3.153708
  H       9.318580     28.533022      2.113863
  H       9.148041     27.530186      3.565573
  H      13.986221     31.166439      9.274588
  H      11.904471     31.416316      7.933836
  H      13.610965     28.937028      4.817538
324
Coordinates from ORCA-job input E -9763.438444352760
  C      -2.406725      9.120080      2.314908
  C      -3.693677      9.250669      2.878829
  C      -4.391551      8.132857      3.347875
  C      -3.819822      6.847942      3.276108
  C      -2.519974      6.718191      2.747275
  C      -1.824562      7.835928      2.271389
  H      -0.807510      7.716550      1.867550
  H      -2.045929      5.724301      2.714717
  H      -4.161583     10.246244      2.915657
  H      -5.402094      8.255519      3.768368
  C      -4.556422      5.651299      3.798331
  Cl     -4.184286      5.356605      5.559687
  H      -4.270121      4.725212      3.265180
  H      -5.653055      5.781165      3.732827
  C      -0.827707     11.643344     -0.055585
  C      -0.582207     12.731319      0.800810
  C      -1.398614     10.439974      0.390586
  C      -0.879941     12.604134      2.172320
  C      -1.715192     10.321102      1.771463
  H      -0.596214     11.753049     -1.128418
  C      -1.436468     11.398856      2.632342
  H      -1.671955     11.288801      3.703502
  C      -1.829279      9.387438     -0.622822
  C      -3.345426      9.386633     -0.735001
  H      -1.474753      8.375766     -0.346950
  H      -1.371088      9.631408     -1.603881
  C      -4.135435      8.276857     -0.386810
  C      -5.527152      8.401355     -0.314471
  C      -6.176030      9.634172     -0.554681
  C      -5.392554     10.741584     -0.973517
  C      -4.000264     10.580452     -1.071927
  H      -3.655340      7.325151     -0.112414
  H      -6.132863      7.541089      0.009220
  H      -3.393511     11.455124     -1.355093
  C      -7.641537      9.724846     -0.316717
  C      -8.530733      8.815548     -0.928752
  C      -9.905878      8.868556     -0.670515
  C     -10.438800      9.832560      0.206544
  C      -8.179376     10.681062      0.575986
  C      -9.553410     10.732859      0.832228
  H      -8.132377      8.065034     -1.628560
  H     -10.582045      8.150932     -1.161850
  H      -7.501493     11.376184      1.095170
  H      -9.948706     11.478019      1.540643
  C     -11.906770      9.868782      0.507271
  Cl    -12.310419      8.880491      1.987298
  H     -12.506894      9.445175     -0.319754
  H     -12.260277     10.895185      0.720515
  C      -0.641303     13.763302      3.112437
  C       0.422219     14.727284      2.645623
  H      -0.407142     13.390763      4.131321
  H      -1.590608     14.342347      3.223189
  C      -0.078706     14.047031      0.260660
  C       0.690018     14.870654      1.267691
  H      -0.963614     14.643053     -0.068394
  H       0.528741     13.888190     -0.654173
  C       1.128539     15.531260      3.559168
  C       2.055445     16.483912      3.124216
  C       1.629647     15.822280      0.841234
  C       2.313026     16.660988      1.746176
  H       1.798751     15.947936     -0.240082
  H       0.941870     15.407830      4.638140
  H       2.604121     17.088200      3.862427
  C       3.195395     17.742797      1.246021
  C       3.952166     17.598123      0.060339
  C       4.656862     18.677423     -0.483679
  C       4.632697     19.949297      0.124419
  C       3.926972     20.079466      1.337382
  H       3.986382     16.620959     -0.444925
  H       5.224059     18.536878     -1.417958
  C       3.230841     18.999039      1.889665
  H       3.863849     21.062519      1.827944
  H       2.645358     19.157638      2.806894
  C      -5.961600     12.109301     -1.303935
  C      -5.278077     13.238296     -0.550094
  H      -7.054634     12.133446     -1.118310
  H      -5.845774     12.295317     -2.394073
  C      -4.742902     13.037330      0.739025
  C      -4.052790     14.054173      1.404409
  C      -5.121631     14.512817     -1.128046
  C      -4.443008     15.539561     -0.456630
  C      -3.879945     15.330058      0.821754
  H      -4.815132     12.044988      1.208776
  H      -3.593925     13.839092      2.380071
  H      -5.529036     14.703437     -2.134270
  H      -4.341819     16.525430     -0.937549
  C      -3.078482     16.382931      1.498615
  C      -2.136448     17.112706      0.740207
  C      -1.309408     18.094439      1.301723
  C      -3.228657     16.703684      2.876705
  C      -2.346154     17.639836      3.444362
  C      -1.376944     18.319424      2.693672
  H      -2.048317     16.897195     -0.336998
  H      -2.459839     17.890898      4.512297
  C      -4.450745     16.301658      3.692665
  C      -5.447754     17.446466      3.617917
  H      -4.169877     16.114953      4.748794
  H      -4.912997     15.375964      3.302918
  C      -5.764737     18.245186      4.727575
  C      -6.553556     19.395503      4.569358
  C      -7.042288     19.783649      3.308061
  C      -6.747269     18.967697      2.179364
  C      -5.971923     17.815818      2.364479
  H      -5.369690     17.984908      5.722662
  H      -6.783331     20.025341      5.442857
  H      -5.716146     17.212841      1.479996
  C      -7.742448     21.089114      3.146825
  C      -9.075902     21.185220      2.705606
  C      -9.654883     22.436762      2.446414
  C      -8.920849     23.623361      2.628504
  C      -7.598566     23.529570      3.106880
  C      -7.022804     22.284928      3.367140
  H      -9.661719     20.266886      2.546799
  H      -5.976091     22.222349      3.699872
  H      -7.005505     24.448097      3.237361
  H     -10.694056     22.491833      2.083988
  C      -9.531605     24.963159      2.327030
  Cl     -8.582853     25.900294      1.084789
  H      -9.560169     25.614436      3.223054
  H     -10.560925     24.860232      1.934980
  C      -7.131314     19.377337      0.769384
  C      -6.601512     20.748993      0.391514
  H      -8.233551     19.377713      0.639988
  H      -6.742286     18.608078      0.067822
  C      -5.287306     21.143062      0.717477
  C      -4.852455     22.454812      0.485936
  C      -5.715251     23.409323     -0.095701
  C      -7.441250     21.687825     -0.232018
  C      -7.008292     22.993752     -0.477972
  H      -4.606278     20.421562      1.196867
  H      -3.825960     22.745798      0.761590
  H      -8.476376     21.404488     -0.479952
  H      -7.707112     23.730811     -0.899508
  C      -5.340682     24.835377     -0.249437
  C      -4.809888     25.565846      0.832166
  C      -4.586623     26.951342      0.749741
  C      -5.597849     25.523712     -1.454600
  C      -5.334975     26.892155     -1.560159
  C      -4.846189     27.625212     -0.463459
  H      -4.625518     25.047023      1.787071
  H      -5.996841     24.969879     -2.317836
  H      -5.525092     27.412489     -2.512886
  C      -4.160014     27.739607      1.969070
  C      -3.416473     29.016372      1.648518
  C      -3.630014     29.664057      0.413975
  C      -4.649433     29.119845     -0.557102
  H      -5.628180     29.617971     -0.350950
  H      -4.390027     29.411708     -1.595934
  H      -3.556441     27.104765      2.650892
  H      -5.078973     27.998444      2.549500
  C      -2.532211     29.596815      2.573824
  C      -2.915428     30.838108      0.132440
  C      -2.032150     31.423394      1.059580
  C      -1.848766     30.800309      2.323046
  H      -2.369675     29.087884      3.539009
  H      -3.065634     31.337598     -0.838794
  C      -1.272187     32.637044      0.653682
  C      -0.396543     32.574944     -0.451719
  C       0.380478     33.679862     -0.815383
  C      -1.384238     33.860900      1.348252
  C      -0.604824     34.965560      0.985479
  C       0.298497     34.886001     -0.092643
  H      -0.301504     31.628075     -1.004517
  H       1.080696     33.602544     -1.662203
  H      -2.098493     33.943368      2.181518
  H      -0.694150     35.907514      1.549501
  C       1.208644     36.030618     -0.416484
  Cl      2.811548     35.845237      0.439361
  H       0.792318     37.000672     -0.086254
  H       1.444617     36.084818     -1.495911
  C      -0.886145     31.332923      3.375499
  C      -0.355539     18.911425      0.460310
  C      -0.420224     19.298894      3.325437
  C      -0.097818     20.469554      2.424450
  H       0.523270     18.745308      3.547505
  H      -0.803369     19.650643      4.304752
  C      -0.102895     20.290927      1.025776
  H      -0.719982     18.975000     -0.585440
  H       0.624497     18.381061      0.406357
  C       0.189359     21.390413      0.199434
  C       0.238002     21.727342      2.947187
  C       0.575272     22.818376      2.123520
  C       0.542850     22.652450      0.711967
  H       0.178059     21.248609     -0.894234
  H       0.244268     21.872896      4.039681
  C       1.016371     24.088105      2.761351
  C       2.132407     24.094168      3.624432
  C       0.361402     25.313796      2.526051
  C       0.818467     26.501204      3.112816
  C       1.934339     26.507759      3.976127
  C       2.581862     25.280338      4.218509
  H       3.463766     25.254893      4.878956
  H       2.673326     23.152148      3.803049
  H      -0.528987     25.340549      1.877633
  H       0.292105     27.441329      2.892014
  C       2.400278     27.779072      4.681444
  C       0.893274     29.629726      3.969653
  C       1.476282     31.344186      2.388663
  C       0.516619     30.769263      3.243950
  H      -1.284350     31.070898      4.376360
  H      -0.833403     32.435896      3.329889
  C       2.171856     29.043504      3.885295
  C       3.152976     29.657788      3.056962
  C       2.758870     30.796716      2.310842
  H       1.230995     32.235526      1.792716
  H       3.494992     31.270567      1.644504
  H       0.160715     29.175645      4.657831
  H       3.463348     27.670283      4.972056
  H       1.831172     27.861540      5.634352
  C       4.593141     29.274352      3.033880
  C       5.084676     27.947732      3.018508
  C       6.465188     27.689278      3.076505
  C       7.404654     28.736843      3.120334
  C       6.927217     30.064697      3.066600
  C       5.550292     30.314241      3.049477
  H       4.385074     27.102961      2.946196
  H       6.817311     26.644321      3.082722
  H       5.205271     31.359156      3.077969
  C       5.307279     21.139719     -0.539995
  C       4.675598     22.465967     -0.163152
  H       5.230202     21.006521     -1.640847
  H       6.393505     21.136168     -0.316464
  C       5.348775     23.509388      0.527202
  C       4.643671     24.706731      0.787127
  C       3.281226     24.836177      0.490272
  C       3.317529     22.632316     -0.478145
  C       2.585354     23.770239     -0.111731
  H       2.790772     21.795252     -0.964483
  H       5.166510     25.528836      1.299450
  H       2.743080     25.750780      0.783188
  C       1.069943     23.729436     -0.231114
  H       0.770700     23.475004     -1.268697
  H       0.644980     24.724535     -0.004680
  C       6.734674     23.339315      1.032618
  C       7.073442     22.197966      1.795042
  C       8.378182     21.985242      2.241218
  C       9.403458     22.908163      1.955204
  C       9.059692     24.075396      1.246952
  C       7.748022     24.290485      0.792640
  H       6.295698     21.461579      2.046659
  H       8.606130     21.073887      2.810071
  H       9.840102     24.819948      1.019027
  H       7.512363     25.195038      0.210472
  C      10.834780     22.614886      2.369157
  C      11.003663     22.396996      3.862482
  H      11.481686     23.457655      2.052389
  H      11.181645     21.724503      1.809995
  C      11.159963     23.533021      4.678249
  C      11.257150     23.447821      6.070766
  C      11.198221     22.182189      6.694765
  C      11.020510     21.045443      5.897890
  C      10.919455     21.124173      4.489933
  C      10.623300     19.872934      3.736130
  H      10.981068     20.051754      6.372063
  H      11.203615     24.525605      4.199160
  C      11.411617     19.424806      2.654504
  C      11.041329     18.292760      1.917733
  C       9.884657     17.560387      2.248981
  C       9.122691     17.974650      3.358324
  C       9.489618     19.107170      4.092117
  H      12.329457     19.970968      2.389514
  H      11.659561     17.970867      1.064730
  H       8.215047     17.414223      3.632832
  H       8.867678     19.439046      4.937762
  C       9.430476     16.411835      1.399671
  Cl      8.249384     16.970538      0.125487
  H       8.900777     15.642458      1.992379
  H      10.270599     15.937781      0.858196
  C      11.348313     22.127237      8.202488
  C      12.404115     23.104730      8.674679
  H      11.570322     21.098049      8.547735
  H      10.370180     22.405951      8.664477
  C      12.464815     24.362807      8.035314
  C      11.454258     24.656927      6.952094
  H      11.748356     25.546340      6.360333
  H      10.480145     24.916039      7.434009
  C      13.337298     22.819252      9.685567
  C      14.320122     23.752282     10.044426
  C      14.416480     24.999582      9.386403
  C      13.463673     25.275746      8.380244
  H      13.514013     26.218847      7.816927
  H      15.023568     23.499827     10.851205
  H      13.298667     21.845291     10.199122
  C      15.488252     25.982950      9.683881
  C      16.667514     25.646241     10.381770
  C      17.668441     26.603423     10.583030
  C      15.372960     27.309091      9.213555
  C      16.381921     28.266257      9.358679
  C      17.558703     27.910555     10.070399
  H      18.579883     26.324090     11.135496
  H      16.823278     24.623333     10.753636
  H      14.452898     27.614902      8.702246
  C      18.665151     28.892964     10.295486
  Cl     18.231253     30.146851     11.558449
  H      18.915948     29.471204      9.385538
  H      19.580872     28.396238     10.665301
  C      16.220304     29.654066      8.753618
  C      14.973227     29.842313      7.921731
  H      17.114739     29.866667      8.125549
  H      16.257560     30.405593      9.570728
  C      14.840770     29.225509      6.658683
  C      13.667492     29.356066      5.904790
  C      12.583623     30.130808      6.377009
  C      12.716466     30.741491      7.643685
  C      13.884956     30.593316      8.402149
  H      15.677405     28.629252      6.260102
  C      11.372413     30.366771      5.550361
  C      10.736305     29.340222      4.815040
  C      10.839390     31.671902      5.473137
  C       9.610050     29.598744      4.012883
  C       9.111717     30.919320      3.931472
  C       9.726089     31.940212      4.673244
  H      11.121179     28.309931      4.889243
  H      11.329285     32.488471      6.024238
  H       9.328608     32.965883      4.612113
  C       7.929922     31.192744      3.035181
  H       7.450680     32.158425      3.291916
  H       8.297824     31.305751      1.986058
  C       8.904472     28.516037      3.210915
  H       9.324602     28.522436      2.175194
  H       9.131796     27.509098      3.616823
  H      13.954337     31.068488      9.393498
  H      11.878669     31.331559      8.045195
  H      13.602674     28.889086      4.909771
324
Coordinates from ORCA-job input E -9763.436504577534
  C      -2.373664      9.129184      2.364135
  C      -3.660297      9.262133      2.928693
  C      -4.358057      8.146247      3.402780
  C      -3.786770      6.860768      3.335282
  C      -2.487251      6.729068      2.806336
  C      -1.791965      7.844807      2.325416
  H      -0.774964      7.723364      1.922073
  H      -2.013548      5.734925      2.776425
  H      -4.127543     10.258013      2.963734
  H      -5.368044      8.270966      3.824037
  C      -4.522299      5.666069      3.863673
  Cl     -4.149837      5.381685      5.626873
  H      -4.234876      4.737335      3.335785
  H      -5.619133      5.793975      3.798441
  C      -0.783809     11.638651     -0.015941
  C      -0.538595     12.731365      0.835615
  C      -1.358773     10.438380      0.434839
  C      -0.845225     12.612547      2.205860
  C      -1.682011     10.328015      1.814961
  H      -0.544505     11.740606     -1.087847
  C      -1.406270     11.410995      2.669970
  H      -1.646435     11.307618      3.740794
  C      -1.782773      9.376081     -0.571525
  C      -3.298799      9.365667     -0.687376
  H      -1.423525      8.368590     -0.286461
  H      -1.323418      9.613769     -1.553654
  C      -4.084198      8.254913     -0.332051
  C      -5.476975      8.372522     -0.266008
  C      -6.131774      9.599245     -0.520309
  C      -5.352598     10.706085     -0.949480
  C      -3.959038     10.552186     -1.039066
  H      -3.599856      7.308397     -0.047434
  H      -6.079875      7.512193      0.062404
  H      -3.356081     11.426265     -1.331873
  C      -7.598884      9.683987     -0.288469
  C      -8.481286      8.764294     -0.895056
  C      -9.857125      8.808803     -0.637389
  C     -10.397934      9.775747      0.231792
  C      -8.143901     10.638000      0.602534
  C      -9.518304     10.681040      0.858266
  H      -8.076284      8.007090     -1.583751
  H     -10.528839      8.088378     -1.130742
  H      -7.469577     11.330901      1.129153
  H      -9.919999     11.429993      1.559037
  C     -11.866080      9.801761      0.534016
  Cl    -12.261037      8.829981      2.027785
  H     -12.462499      9.361385     -0.286888
  H     -12.229442     10.827471      0.733541
  C      -0.609987     13.775747      3.141682
  C       0.454204     14.739574      2.675915
  H      -0.379671     13.407612      4.163069
  H      -1.560405     14.354044      3.246790
  C      -0.026348     14.042597      0.291132
  C       0.734670     14.873588      1.299458
  H      -0.906224     14.638872     -0.050477
  H       0.589341     13.875969     -0.616828
  C       1.145708     15.556134      3.589562
  C       2.071577     16.510405      3.156661
  C       1.676705     15.825233      0.875078
  C       2.347186     16.674797      1.780590
  H       1.858475     15.941156     -0.205357
  H       0.945172     15.443927      4.667304
  H       2.605992     17.126177      3.895780
  C       3.225965     17.761665      1.283782
  C       4.010087     17.614011      0.116118
  C       4.703371     18.699414     -0.430912
  C       4.638500     19.981428      0.153660
  C       3.910017     20.114550      1.352559
  H       4.073143     16.630746     -0.374354
  H       5.292163     18.555565     -1.351176
  C       3.225781     19.027806      1.908752
  H       3.816646     21.102860      1.827078
  H       2.617612     19.188813      2.810886
  C      -5.925695     12.069156     -1.289845
  C      -5.245249     13.203412     -0.542353
  H      -7.018970     12.092070     -1.106036
  H      -5.807959     12.247826     -2.381010
  C      -4.698300     13.005713      0.742254
  C      -4.012607     14.028049      1.403299
  C      -5.099440     14.477552     -1.122924
  C      -4.423838     15.509476     -0.456618
  C      -3.853629     15.305464      0.819690
  H      -4.754050     12.011541      1.210209
  H      -3.545570     13.819429      2.376565
  H      -5.510656     14.663092     -2.128554
  H      -4.334775     16.494923     -0.939879
  C      -3.057126     16.364525      1.493436
  C      -2.119370     17.098435      0.733368
  C      -1.299711     18.088456      1.292243
  C      -3.209818     16.688914      2.870824
  C      -2.334657     17.633297      3.435381
  C      -1.370219     18.318094      2.683188
  H      -2.027987     16.879328     -0.342810
  H      -2.451887     17.888460      4.501995
  C      -4.431987     16.284239      3.685462
  C      -5.429826     17.428723      3.608867
  H      -4.152926     16.097857      4.742153
  H      -4.892479     15.358091      3.294557
  C      -5.754979     18.225547      4.717680
  C      -6.542596     19.376928      4.555693
  C      -7.020655     19.768487      3.291100
  C      -6.713875     18.955852      2.163006
  C      -5.942312     17.802658      2.352189
  H      -5.367052     17.963786      5.715206
  H      -6.779032     20.004809      5.428816
  H      -5.675830     17.204133      1.467798
  C      -7.717169     21.075614      3.124753
  C      -9.045756     21.174256      2.670013
  C      -9.617891     22.426326      2.398353
  C      -8.881553     23.610971      2.580541
  C      -7.565348     23.515398      3.075288
  C      -6.996469     22.270368      3.348537
  H      -9.632149     20.256783      2.508461
  H      -5.952761     22.206850      3.690320
  H      -6.971358     24.432970      3.207096
  H     -10.652727     22.482814      2.023784
  C      -9.486406     24.951349      2.266368
  Cl     -8.500811     25.897613      1.062497
  H      -9.547759     25.596449      3.165493
  H     -10.502384     24.846389      1.841331
  C      -7.085338     19.367481      0.750550
  C      -6.548620     20.737201      0.375741
  H      -8.186564     19.372756      0.613499
  H      -6.694408     18.596573      0.051864
  C      -5.235231     21.128600      0.707866
  C      -4.795410     22.438286      0.476274
  C      -5.651444     23.393949     -0.112101
  C      -7.382035     21.677462     -0.254369
  C      -6.943787     22.981421     -0.500020
  H      -4.557585     20.407037      1.191214
  H      -3.768365     22.723611      0.754586
  H      -8.417009     21.397819     -0.506846
  H      -7.638243     23.718412     -0.928811
  C      -5.274999     24.819189     -0.266031
  C      -4.752622     25.552660      0.817721
  C      -4.536070     26.938998      0.735320
  C      -5.528717     25.505120     -1.473166
  C      -5.271863     26.874364     -1.578696
  C      -4.793915     27.610609     -0.479611
  H      -4.573174     25.036073      1.774738
  H      -5.921145     24.948921     -2.337871
  H      -5.460648     27.392917     -2.532666
  C      -4.121634     27.732786      1.955672
  C      -3.377558     29.009414      1.634952
  C      -3.590188     29.654245      0.398936
  C      -4.606685     29.106000     -0.572498
  H      -5.588485     29.597899     -0.365931
  H      -4.348925     29.399995     -1.611095
  H      -3.523704     27.102850      2.646916
  H      -5.046513     27.994090      2.525517
  C      -2.497305     29.594459      2.561353
  C      -2.878856     30.829171      0.116188
  C      -1.998333     31.418860      1.043837
  C      -1.815461     30.798754      2.308789
  H      -2.338369     29.089796      3.529353
  H      -3.029695     31.325118     -0.856928
  C      -1.244274     32.635707      0.636392
  C      -0.364763     32.578786     -0.465693
  C       0.401097     33.691225     -0.830591
  C      -1.372188     33.860625      1.327239
  C      -0.604739     34.972723      0.962725
  C       0.302436     34.899057     -0.113037
  H      -0.258974     31.631096     -1.015121
  H       1.106227     33.619752     -1.673831
  H      -2.092206     33.935998      2.156193
  H      -0.706060     35.916475      1.521673
  C       1.199526     36.053288     -0.438728
  Cl      2.797618     35.901432      0.431924
  H       0.766060     37.020107     -0.121192
  H       1.444193     36.100969     -1.516509
  C      -0.851302     31.331949      3.359719
  C      -0.354897     18.910795      0.446019
  C      -0.421521     19.305472      3.314900
  C      -0.096745     20.471752      2.409043
  H       0.521729     18.756878      3.551557
  H      -0.814977     19.663686      4.287829
  C      -0.108106     20.291708      1.010811
  H      -0.726988     18.973306     -0.597136
  H       0.628053     18.387082      0.384251
  C       0.177487     21.391596      0.182206
  C       0.241062     21.730272      2.929227
  C       0.574794     22.820512      2.103335
  C       0.530282     22.654832      0.692018
  H       0.162687     21.248505     -0.911215
  H       0.252864     21.876260      4.021623
  C       1.024840     24.087715      2.738946
  C       2.145183     24.086959      3.596594
  C       0.376640     25.317193      2.506360
  C       0.841901     26.500794      3.093004
  C       1.957141     26.499187      3.956565
  C       2.601994     25.269246      4.192055
  H       3.483765     25.237772      4.852386
  H       2.680838     23.141483      3.772131
  H      -0.510711     25.353646      1.854666
  H       0.315648     27.442445      2.878826
  C       2.428284     27.767393      4.662179
  C       0.922677     29.622120      3.952415
  C       1.513741     31.340645      2.378232
  C       0.550213     30.764396      3.228224
  H      -1.249355     31.072919      4.361388
  H      -0.794306     32.434765      3.312614
  C       2.200515     29.033828      3.870114
  C       3.185160     29.650012      3.048430
  C       2.796327     30.792568      2.305495
  H       1.271947     32.235611      1.785976
  H       3.536836     31.266303      1.643809
  H       0.187186     29.169507      4.638452
  H       3.492187     27.656444      4.948235
  H       1.862961     27.849504      5.617342
  C       4.624894     29.265463      3.033350
  C       5.116606     27.938639      3.005031
  C       6.497204     27.679307      3.071518
  C       7.435396     28.728233      3.140722
  C       6.956283     30.056212      3.101073
  C       5.580103     30.305174      3.072120
  H       4.416420     27.095840      2.916433
  H       6.849761     26.633819      3.064922
  H       5.232590     31.349042      3.110388
  C       5.304451     21.173553     -0.518314
  C       4.656954     22.501352     -0.170402
  H       5.241608     21.023535     -1.617980
  H       6.388222     21.183913     -0.282734
  C       5.323543     23.566736      0.491377
  C       4.612345     24.765211      0.728816
  C       3.247751     24.876417      0.434915
  C       3.297804     22.651217     -0.486532
  C       2.559150     23.791859     -0.142912
  H       2.775277     21.800215     -0.952832
  H       5.131408     25.602332      1.222197
  H       2.703302     25.793127      0.709154
  C       1.044396     23.734294     -0.255221
  H       0.742715     23.474655     -1.290918
  H       0.609068     24.725222     -0.029972
  C       6.707681     23.405907      0.999856
  C       7.033861     22.282009      1.791170
  C       8.336869     22.063627      2.236246
  C       9.373826     22.962389      1.919058
  C       9.043820     24.112713      1.176829
  C       7.732646     24.334260      0.724210
  H       6.250350     21.554373      2.050832
  H       8.551407     21.168868      2.833669
  H       9.833686     24.838795      0.923212
  H       7.507530     25.221603      0.112154
  C      10.805110     22.654673      2.321003
  C      10.987583     22.407927      3.808213
  H      11.454385     23.499051      2.013455
  H      11.144535     21.773179      1.743747
  C      11.190632     23.526223      4.636794
  C      11.302416     23.418911      6.026173
  C      11.221524     22.147989      6.635556
  C      10.985981     21.029169      5.827661
  C      10.854035     21.131392      4.422849
  C      10.412549     19.923324      3.667999
  H      10.913408     20.031901      6.290214
  H      11.253429     24.524385      4.171298
  C      11.063169     19.452301      2.507699
  C      10.509099     18.414248      1.747301
  C       9.303963     17.796592      2.134935
  C       8.691572     18.212758      3.332591
  C       9.240303     19.252912      4.088127
  H      12.011124     19.912353      2.191251
  H      11.013248     18.084112      0.825190
  H       7.752940     17.735617      3.655703
  H       8.723635     19.605261      4.994189
  C       8.632290     16.789438      1.250995
  Cl      7.391066     17.595330      0.180396
  H       8.083464     16.026151      1.834099
  H       9.347471     16.285773      0.573848
  C      11.391746     22.072135      8.141248
  C      12.460900     23.033831      8.619165
  H      11.605252     21.036368      8.471896
  H      10.421606     22.356829      8.615963
  C      12.526533     24.299967      7.997983
  C      11.522239     24.613618      6.918355
  H      11.830578     25.501667      6.334854
  H      10.552416     24.887922      7.401793
  C      13.393152     22.734095      9.627472
  C      14.374476     23.663639     10.002772
  C      14.469502     24.922452      9.365302
  C      13.522646     25.208702      8.358264
  H      13.572837     26.160056      7.808979
  H      15.076060     23.399546     10.807610
  H      13.350430     21.754890     10.130654
  C      15.529320     25.911238      9.685729
  C      16.709073     25.576126     10.381337
  C      17.697285     26.540963     10.606237
  C      15.399085     27.245903      9.243411
  C      16.394255     28.213612      9.414573
  C      17.573132     27.857330     10.122099
  H      18.609245     26.261990     11.158046
  H      16.876294     24.547671     10.732582
  H      14.474516     27.551371      8.740482
  C      18.666249     28.848220     10.372789
  Cl     18.212684     30.066600     11.663239
  H      18.911493     29.450866      9.477300
  H      19.587582     28.355258     10.733562
  C      16.217038     29.611489      8.838635
  C      14.970606     29.802468      8.006723
  H      17.110398     29.849655      8.218125
  H      16.242300     30.345634      9.671934
  C      14.849394     29.208618      6.731654
  C      13.677811     29.341121      5.976096
  C      12.584457     30.095036      6.459080
  C      12.706043     30.683586      7.737298
  C      13.873142     30.533104      8.497315
  H      15.694113     28.629558      6.324773
  C      11.376068     30.337148      5.630479
  C      10.751223     29.319940      4.872881
  C      10.836034     31.639743      5.573199
  C       9.630945     29.584389      4.066219
  C       9.127554     30.902736      4.003931
  C       9.728427     31.914676      4.768533
  H      11.143824     28.293265      4.929677
  H      11.317341     32.449132      6.142192
  H       9.324309     32.938535      4.721823
  C       7.956972     31.186038      3.096282
  H       7.472530     32.147673      3.358247
  H       8.338725     31.311686      2.053576
  C       8.936369     28.512118      3.239325
  H       9.363448     28.540447      2.206772
  H       9.166271     27.499034      3.628074
  H      13.934796     30.990905      9.497306
  H      11.860296     31.257611      8.145372
  H      13.621035     28.892895      4.971976
324
Coordinates from ORCA-job input E -9763.438687322092
  C      -2.400213      9.141440      2.377746
  C      -3.688007      9.272978      2.939616
  C      -4.384045      8.156766      3.415213
  C      -3.809765      6.872504      3.351904
  C      -2.509239      6.742102      2.825059
  C      -1.815667      7.858184      2.342618
  H      -0.797982      7.738224      1.940636
  H      -2.033400      5.748927      2.798597
  H      -4.157769     10.267791      2.970238
  H      -5.395039      8.280090      3.834335
  C      -4.544179      5.677649      3.881402
  Cl     -4.174927      5.397382      5.645763
  H      -4.254053      4.748401      3.355950
  H      -5.641014      5.803853      3.813094
  C      -0.818904     11.648922     -0.007764
  C      -0.576180     12.743428      0.841530
  C      -1.389396     10.448098      0.445909
  C      -0.877901     12.625959      2.212890
  C      -1.710525     10.339762      1.826528
  H      -0.582888     11.750234     -1.080419
  C      -1.435077     11.423890      2.680001
  H      -1.672193     11.321099      3.751501
  C      -1.810344      9.383236     -0.558849
  C      -3.325983      9.372016     -0.677240
  H      -1.451249      8.376458     -0.271049
  H      -1.349528      9.619671     -1.540509
  C      -4.110575      8.261098     -0.320779
  C      -5.503300      8.377627     -0.255483
  C      -6.159023      9.603261     -0.512647
  C      -5.380627     10.710128     -0.942876
  C      -3.986794     10.557469     -1.031202
  H      -3.625756      7.315601     -0.033623
  H      -6.105131      7.517069      0.074283
  H      -3.384506     11.432020     -1.323926
  C      -7.625856      9.687306     -0.279873
  C      -8.508016      8.765101     -0.882755
  C      -9.883918      8.811307     -0.626508
  C     -10.424965      9.782375      0.237797
  C      -8.171388     10.647815      0.603599
  C      -9.546028     10.692925      0.857670
  H      -8.103135      8.006973     -1.570456
  H     -10.555005      8.086431     -1.114074
  H      -7.498280     11.348716      1.121113
  H      -9.947681     11.444619      1.555466
  C     -11.893136      9.809927      0.539172
  Cl    -12.287417      8.844293      2.036893
  H     -12.489540      9.366097     -0.279845
  H     -12.256229     10.836512      0.734484
  C      -0.641831     13.791029      3.146301
  C       0.419650     14.755041      2.675007
  H      -0.406751     13.424617      4.167171
  H      -1.592567     14.367837      3.254070
  C      -0.071328     14.055416      0.293418
  C       0.692579     14.888274      1.297072
  H      -0.955194     14.647897     -0.043676
  H       0.539922     13.889879     -0.617658
  C       1.117180     15.570802      3.584805
  C       2.041319     16.524149      3.146099
  C       1.630965     15.840044      0.866947
  C       2.306422     16.689288      1.768208
  H       1.806687     15.956034     -0.214456
  H       0.924208     15.457487      4.663754
  H       2.580292     17.140526      3.881194
  C       3.183418     17.773725      1.264547
  C       3.947364     17.627192      0.084008
  C       4.641270     18.710121     -0.466365
  C       4.598297     19.987355      0.129187
  C       3.887537     20.119729      1.338970
  H       3.995513     16.646237     -0.412589
  H       5.212430     18.568591     -1.397957
  C       3.201092     19.035956      1.897166
  H       3.809362     21.106242      1.820554
  H       2.607680     19.196005      2.809062
  C      -5.955112     12.072103     -1.286339
  C      -5.273968     13.209216     -0.543406
  H      -7.047897     12.094363     -1.099458
  H      -5.840675     12.247907     -2.378241
  C      -4.725805     13.016291      0.741221
  C      -4.039149     14.040828      1.398034
  C      -5.129178     14.481644     -1.128357
  C      -4.453250     15.515973     -0.465969
  C      -3.881698     15.316524      0.810588
  H      -4.781597     12.023492      1.212219
  H      -3.572903     13.833929      2.371924
  H      -5.541207     14.663831     -2.134209
  H      -4.365596     16.500668     -0.950936
  C      -3.085031     16.377873      1.480872
  C      -2.149656     17.112864      0.718521
  C      -1.327387     18.101261      1.276493
  C      -3.233763     16.701128      2.858681
  C      -2.355281     17.643149      3.422350
  C      -1.392243     18.327407      2.668277
  H      -2.060858     16.894704     -0.358008
  H      -2.468097     17.895687      4.490000
  C      -4.453990     16.297897      3.676963
  C      -5.449810     17.444027      3.603076
  H      -4.171484     16.110784      4.732517
  H      -4.917025     15.372582      3.287131
  C      -5.769848     18.241885      4.712600
  C      -6.556585     19.393907      4.552618
  C      -7.038256     19.785267      3.289362
  C      -6.738014     18.970820      2.160977
  C      -5.966906     17.817012      2.348235
  H      -5.380136     17.979143      5.709114
  H      -6.787693     20.023696      5.425763
  H      -5.706969     17.215814      1.463820
  C      -7.736050     21.091702      3.124711
  C      -9.067041     21.189008      2.676963
  C      -9.642386     22.440541      2.410343
  C      -8.906631     23.625976      2.590408
  C      -7.587206     23.531628      3.076512
  C      -7.015443     22.286957      3.345195
  H      -9.653711     20.271259      2.518246
  H      -5.969891     22.223675      3.681309
  H      -6.993297     24.449575      3.206463
  H     -10.679430     22.496135      2.042016
  C      -9.514729     24.965372      2.281175
  Cl     -8.542167     25.909504      1.063962
  H      -9.565454     25.612634      3.179239
  H     -10.535059     24.860625      1.866784
  C      -7.112509     19.381395      0.748901
  C      -6.576453     20.750613      0.370959
  H      -8.213956     19.385953      0.613898
  H      -6.722725     18.610111      0.050030
  C      -5.261484     21.140858      0.698559
  C      -4.821549     22.450082      0.464895
  C      -5.679331     23.405720     -0.120985
  C      -7.410793     21.690536     -0.258339
  C      -6.972444     22.993878     -0.506345
  H      -4.582434     20.418039      1.178033
  H      -3.794749     22.737553      0.742459
  H      -8.445853     21.410431     -0.509677
  H      -7.667106     23.732147     -0.932530
  C      -5.302257     24.830561     -0.274136
  C      -4.777808     25.561708      0.809832
  C      -4.558714     26.947601      0.728556
  C      -5.555039     25.517583     -1.480789
  C      -5.295041     26.886256     -1.585391
  C      -4.815437     27.620491     -0.485732
  H      -4.598256     25.043539      1.765978
  H      -5.947551     24.962310     -2.346019
  H      -5.484007     27.406443     -2.538387
  C      -4.141442     27.738478      1.949540
  C      -3.397318     29.015237      1.630814
  C      -3.608843     29.661765      0.395556
  C      -4.624496     29.115437     -0.577783
  H      -5.605390     29.609665     -0.372737
  H      -4.364239     29.409108     -1.615848
  H      -3.542372     27.106077      2.637563
  H      -5.065195     27.998004      2.521891
  C      -2.517302     29.598150      2.558418
  C      -2.897990     30.837573      0.115548
  C      -2.017282     31.424911      1.044116
  C      -1.835788     30.802943      2.308693
  H      -2.358766     29.091673      3.525507
  H      -3.046052     31.333788     -0.857564
  C      -1.266260     32.645544      0.641819
  C      -0.385581     32.592532     -0.459919
  C       0.381003     33.705819     -0.820642
  C      -1.392848     33.867699      1.337107
  C      -0.623812     34.980541      0.977395
  C       0.284189     34.910676     -0.097571
  H      -0.279892     31.647172     -1.013265
  H       1.087416     33.635385     -1.662849
  H      -2.111047     33.941807      2.167739
  H      -0.723836     35.921156      1.541805
  C       1.181528     36.066120     -0.419424
  Cl      2.781409     35.906170      0.446992
  H       0.750191     37.031581     -0.095099
  H       1.423488     36.119792     -1.497521
  C      -0.875090     31.336741      3.362350
  C      -0.384149     18.926054      0.430461
  C      -0.436482     19.308608      3.298694
  C      -0.116348     20.479483      2.397437
  H       0.507588     18.756486      3.522871
  H      -0.820617     19.661051      4.277353
  C      -0.134168     20.305280      0.998358
  H      -0.757335     18.991017     -0.612048
  H       0.598241     18.401655      0.367401
  C       0.152560     21.407331      0.173286
  C       0.222804     21.735930      2.921418
  C       0.554862     22.829143      2.098787
  C       0.509179     22.668063      0.686998
  H       0.137115     21.267790     -0.920551
  H       0.236219     21.878322      4.014232
  C       1.005872     24.094979      2.736882
  C       2.128369     24.094086      3.591599
  C       0.353866     25.323730      2.510492
  C       0.817770     26.506895      3.099318
  C       1.936280     26.506100      3.958840
  C       2.583952     25.276247      4.189542
  H       3.468598     25.245125      4.845986
  H       2.667015     23.149286      3.763075
  H      -0.537550     25.357697      1.864096
  H       0.290145     27.448500      2.888015
  C       2.406785     27.773333      4.668125
  C       0.899834     29.628097      3.958920
  C       1.490988     31.349354      2.387719
  C       0.527046     30.770632      3.235031
  H      -1.275942     31.077439      4.362825
  H      -0.820405     32.439532      3.314195
  C       2.178810     29.041785      3.877664
  C       3.162840     29.659936      3.056138
  C       2.773847     30.803005      2.314776
  H       1.249226     32.244621      1.796658
  H       3.513953     31.279517      1.654698
  H       0.164097     29.172526      4.642633
  H       3.470615     27.661777      4.955428
  H       1.840300     27.852993      5.622759
  C       4.602180     29.276111      3.038821
  C       5.092399     27.949523      3.013709
  C       6.472197     27.689570      3.077889
  C       7.411870     28.736804      3.139687
  C       6.934948     30.065369      3.096644
  C       5.558619     30.315525      3.071540
  H       4.391928     27.106184      2.931646
  H       6.823058     26.644218      3.074536
  H       5.212861     31.360054      3.106851
  C       5.273953     21.175868     -0.537667
  C       4.634942     22.503963     -0.179423
  H       5.208784     21.033387     -1.638129
  H       6.357821     21.176671     -0.302296
  C       5.303900     23.560148      0.494843
  C       4.595995     24.758587      0.739034
  C       3.232323     24.877963      0.442326
  C       3.276779     22.661015     -0.496628
  C       2.540820     23.800926     -0.145112
  H       2.752839     21.815589     -0.971270
  H       5.116595     25.587667      1.243689
  H       2.691005     25.795253      0.720202
  C       1.025459     23.749280     -0.257319
  H       0.722897     23.494022     -1.293737
  H       0.594625     24.741210     -0.028313
  C       6.687165     23.396344      1.006597
  C       7.016886     22.265310      1.786456
  C       8.319257     22.050268      2.235975
  C       9.351933     22.960150      1.935662
  C       9.017079     24.117993      1.207980
  C       7.707217     24.335512      0.749951
  H       6.236441     21.531218      2.036667
  H       8.536969     21.149033      2.821943
  H       9.803010     24.852877      0.967942
  H       7.478752     25.230959      0.151127
  C      10.784485     22.658941      2.341237
  C      10.967694     22.403554      3.828379
  H      11.428188     23.510709      2.042595
  H      11.131928     21.786008      1.756130
  C      11.144728     23.521718      4.663848
  C      11.270889     23.409386      6.052077
  C      11.234008     22.131465      6.651663
  C      11.054635     21.009436      5.834654
  C      10.916591     21.115217      4.431336
  C      10.639944     19.871380      3.657787
  H      11.029716     20.006586      6.290090
  H      11.181992     24.523417      4.203638
  C      11.398297     19.475452      2.535353
  C      11.014858     18.371137      1.764017
  C       9.876292     17.613776      2.100944
  C       9.156961     17.962822      3.260142
  C       9.536534     19.067944      4.027725
  H      12.304436     20.038324      2.266405
  H      11.601302     18.098531      0.872280
  H       8.266846     17.378929      3.542548
  H       8.940218     19.356350      4.906976
  C       9.388935     16.513356      1.208111
  Cl      8.114923     17.132919      0.056282
  H       8.911153     15.695670      1.779845
  H      10.198929     16.094946      0.581660
  C      11.404705     22.047547      8.155911
  C      12.452188     23.028314      8.638436
  H      11.643644     21.014393      8.477209
  H      10.428712     22.304209      8.634882
  C      12.495418     24.298576      8.022475
  C      11.475664     24.603675      6.951005
  H      11.762636     25.502284      6.370301
  H      10.504837     24.854610      7.443941
  C      13.390055     22.737364      9.643307
  C      14.360421     23.676775     10.018738
  C      14.440724     24.936567      9.382885
  C      13.484249     25.217222      8.381327
  H      13.521455     26.170325      7.834347
  H      15.068708     23.417991     10.819314
  H      13.362591     21.755297     10.141910
  C      15.501012     25.926972      9.698075
  C      16.682155     25.591165     10.392458
  C      17.673179     26.554546     10.611503
  C      15.372834     27.260219      9.251320
  C      16.371602     28.225210      9.415238
  C      17.551016     27.869199     10.122113
  H      18.585539     26.275440     11.162493
  H      16.848270     24.563527     10.746394
  H      14.449178     27.566852      8.747415
  C      18.647973     28.858004     10.364727
  Cl     18.202749     30.083481     11.651414
  H      18.891905     29.455876      9.465685
  H      19.568952     28.363591     10.724327
  C      16.197486     29.620442      8.832076
  C      14.951253     29.808750      7.999327
  H      17.091102     29.852012      8.209542
  H      16.224686     30.359627      9.660671
  C      14.828197     29.207046      6.728087
  C      13.657471     29.339374      5.970957
  C      12.566866     30.100948      6.448400
  C      12.690150     30.696535      7.723119
  C      13.856201     30.546323      8.484724
  H      15.670828     28.622390      6.325049
  C      11.359611     30.342548      5.618121
  C      10.730741     29.323591      4.866133
  C      10.824517     31.647203      5.553947
  C       9.610377     29.589614      4.058639
  C       9.111244     30.910304      3.989786
  C       9.717082     31.923113      4.749151
  H      11.117526     28.293729      4.930259
  H      11.308726     32.457634      6.118932
  H       9.317636     32.948525      4.697914
  C       7.937794     31.193534      3.085774
  H       7.456391     32.156631      3.347918
  H       8.315535     31.316767      2.041361
  C       8.911464     28.515824      3.238287
  H       9.338684     28.535343      2.205664
  H       9.136711     27.504261      3.633562
  H      13.919069     31.010773      9.481545
  H      11.846714     31.276113      8.128063
  H      13.599833     28.884840      4.969765
324
Coordinates from ORCA-job input E -9763.438811176611
  C      -2.380202      9.132082      2.342117
  C      -3.669198      9.256848      2.902299
  C      -4.360179      8.136929      3.376129
  C      -3.779468      6.855714      3.312641
  C      -2.477915      6.731697      2.786543
  C      -1.789202      7.851648      2.306212
  H      -0.770648      7.737238      1.904773
  H      -1.996948      5.740963      2.760793
  H      -4.144009     10.249327      2.932572
  H      -5.372504      8.254694      3.793655
  C      -4.509243      5.657393      3.840351
  Cl     -4.140165      5.375829      5.604396
  H      -4.215102      4.730096      3.313641
  H      -5.606478      5.779798      3.770425
  C      -0.814756     11.653407     -0.036809
  C      -0.576998     12.745873      0.815377
  C      -1.378053     10.448787      0.413678
  C      -0.874422     12.622824      2.187178
  C      -1.695227     10.334082      1.794778
  H      -0.584052     11.760466     -1.110062
  C      -1.423942     11.416350      2.651807
  H      -1.660226     11.309459      3.723071
  C      -1.800344      9.390137     -0.596642
  C      -3.316097      9.378312     -0.709316
  H      -1.439023      8.381868     -0.317213
  H      -1.343731      9.634737     -1.578199
  C      -4.097543      8.264307     -0.355380
  C      -5.489807      8.379097     -0.281754
  C      -6.147843      9.606131     -0.526848
  C      -5.372976     10.717552     -0.950478
  C      -3.979681     10.566067     -1.050345
  H      -3.610487      7.317546     -0.076153
  H      -6.088522      7.515480      0.046252
  H      -3.379533     11.444591     -1.335769
  C      -7.613025      9.687634     -0.285831
  C      -8.497100      8.769086     -0.891066
  C      -9.872299      8.816439     -0.633253
  C     -10.410177      9.783526      0.237143
  C      -8.156205     10.650455      0.596209
  C      -9.530508     10.697097      0.851709
  H      -8.095206      8.019068     -1.589374
  H     -10.543886      8.088165     -1.115073
  H      -7.483596     11.361278      1.100849
  H      -9.929432     11.443951      1.556268
  C     -11.878171      9.814400      0.537071
  Cl    -12.274411      8.839083      2.027297
  H     -12.475947      9.378710     -0.285348
  H     -12.237439     10.840873      0.740086
  C      -0.641920     13.786391      3.123248
  C       0.417352     14.752705      2.652132
  H      -0.404375     13.418274      4.142955
  H      -1.594184     14.360458      3.232796
  C      -0.081065     14.061663      0.270057
  C       0.683818     14.891642      1.273645
  H      -0.969626     14.651432     -0.060306
  H       0.526585     13.902287     -0.644520
  C       1.123088     15.560634      3.562779
  C       2.047487     16.513528      3.123288
  C       1.619846     15.843717      0.842897
  C       2.300607     16.687160      1.743923
  H       1.786623     15.968033     -0.238983
  H       0.939551     15.438631      4.642422
  H       2.595518     17.122570      3.858112
  C       3.179166     17.767856      1.237632
  C       3.927343     17.622732      0.047076
  C       4.624910     18.703002     -0.503411
  C       4.605306     19.973495      0.106121
  C       3.906222     20.104462      1.322598
  H       3.960674     16.644732     -0.456542
  H       5.186128     18.563257     -1.441349
  C       3.214631     19.024457      1.879744
  H       3.846858     21.087227      1.813614
  H       2.632222     19.183266      2.798990
  C      -5.952409     12.080204     -1.285287
  C      -5.275061     13.217126     -0.536918
  H      -7.045205     12.096992     -1.097037
  H      -5.840720     12.263059     -2.376326
  C      -4.742190     13.027047      0.754647
  C      -4.055303     14.050018      1.414124
  C      -5.124078     14.489279     -1.122104
  C      -4.449464     15.522442     -0.456319
  C      -3.885299     15.322169      0.823142
  H      -4.816061     12.038577      1.232129
  H      -3.598533     13.841447      2.392128
  H      -5.534436     14.673539     -2.128284
  H      -4.348976     16.505680     -0.942957
  C      -3.084441     16.380205      1.492306
  C      -2.150368     17.112629      0.726980
  C      -1.323562     18.098001      1.282297
  C      -3.226892     16.701678      2.870597
  C      -2.341914     17.639142      3.432718
  C      -1.379969     18.321327      2.674951
  H      -2.069874     16.898310     -0.351061
  H      -2.448423     17.889334      4.501560
  C      -4.444327     16.299296      3.693534
  C      -5.441111     17.444787      3.621250
  H      -4.157733     16.113686      4.748237
  H      -4.907971     15.372983      3.306628
  C      -5.753371     18.245819      4.730585
  C      -6.539363     19.398052      4.572497
  C      -7.029692     19.785977      3.311743
  C      -6.741418     18.966824      2.183855
  C      -5.968884     17.812818      2.368873
  H      -5.356567     17.985902      5.725034
  H      -6.764840     20.030040      5.445558
  H      -5.719390     17.206426      1.485114
  C      -7.726329     21.093039      3.148518
  C      -9.061330     21.191803      2.712542
  C      -9.637644     22.444337      2.452080
  C      -8.899195     23.629208      2.627962
  C      -7.575319     23.533017      3.100896
  C      -7.002219     22.287324      3.361815
  H      -9.651097     20.275040      2.559386
  H      -5.954893     22.222146      3.692155
  H      -6.978464     24.449823      3.225441
  H     -10.678106     22.501361      2.093841
  C      -9.508376     24.969408      2.326343
  Cl     -8.556126     25.908221      1.087713
  H      -9.539670     25.619936      3.222788
  H     -10.536425     24.867655      1.930717
  C      -7.126279     19.375542      0.773656
  C      -6.592056     20.744418      0.391268
  H      -8.228666     19.379182      0.645724
  H      -6.740521     18.603945      0.072874
  C      -5.276451     21.134764      0.716032
  C      -4.836884     22.444307      0.480283
  C      -5.696134     23.399676     -0.105445
  C      -7.428780     21.684406     -0.234712
  C      -6.990843     22.987689     -0.485954
  H      -4.598645     20.412706      1.199348
  H      -3.809861     22.733673      0.755647
  H      -8.465127     21.404026     -0.480803
  H      -7.686285     23.726745     -0.909650
  C      -5.316177     24.823798     -0.265319
  C      -4.786731     25.557611      0.814441
  C      -4.560465     26.942387      0.726742
  C      -5.566789     25.507004     -1.474922
  C      -5.300366     26.874502     -1.585653
  C      -4.814124     27.611362     -0.490253
  H      -4.605067     25.042061      1.771594
  H      -5.964768     24.950147     -2.336661
  H      -5.484704     27.390944     -2.541602
  C      -4.138905     27.735007      1.944763
  C      -3.394264     29.010722      1.623514
  C      -3.602208     29.654522      0.385855
  C      -4.615615     29.105737     -0.589250
  H      -5.595124     29.605862     -0.391933
  H      -4.349240     29.392480     -1.627760
  H      -3.538511     27.102010      2.631039
  H      -5.060898     27.994942      2.519740
  C      -2.515122     29.594295      2.551229
  C      -2.887593     30.829064      0.104597
  C      -2.009846     31.417531      1.034687
  C      -1.832815     30.798227      2.300928
  H      -2.356667     29.088137      3.518546
  H      -3.034044     31.326820     -0.867999
  C      -1.249205     32.631702      0.631025
  C      -0.360607     32.564250     -0.463959
  C       0.416568     33.669013     -0.827957
  C      -1.371545     33.859948      1.315495
  C      -0.591688     34.964394      0.952572
  C       0.323276     34.880255     -0.115067
  H      -0.257008     31.613885     -1.009103
  H       1.126110     33.586613     -1.666492
  H      -2.093855     33.947596      2.141269
  H      -0.689125     35.909500      1.509946
  C       1.229794     36.027534     -0.440724
  Cl      2.823919     35.859516      0.435013
  H       0.804067     36.998173     -0.124564
  H       1.476809     36.072521     -1.518090
  C      -0.877103     31.337138      3.355920
  C      -0.379921     18.920169      0.434353
  C      -0.420227     19.302003      3.300149
  C      -0.109509     20.475156      2.398836
  H       0.526833     18.750826      3.513868
  H      -0.795868     19.651128      4.283331
  C      -0.127540     20.299795      0.999887
  H      -0.752652     18.983279     -0.608406
  H       0.601777     18.393813      0.373524
  C       0.154187     21.401852      0.173835
  C       0.228825     21.732373      2.921450
  C       0.556646     22.826279      2.097826
  C       0.508936     22.663654      0.685839
  H       0.130364     21.263280     -0.920026
  H       0.246401     21.874762      4.014230
  C       1.004225     24.094390      2.735375
  C       2.130539     24.098318      3.585044
  C       0.344443     25.320480      2.514938
  C       0.805619     26.505407      3.103663
  C       1.932004     26.509892      3.953356
  C       2.584774     25.282299      4.180446
  H       3.474697     25.254833      4.829940
  H       2.677283     23.157402      3.750510
  H      -0.555651     25.347795      1.880153
  H       0.276422     27.446183      2.892491
  C       2.403047     27.776571      4.664300
  C       0.899081     29.632084      3.955937
  C       1.490669     31.354878      2.386800
  C       0.526754     30.775422      3.233763
  H      -1.280003     31.078922      4.355960
  H      -0.827107     32.439856      3.303921
  C       2.177701     29.045750      3.873864
  C       3.162785     29.665303      3.054164
  C       2.773909     30.808829      2.313104
  H       1.247411     32.247977      1.792839
  H       3.514096     31.287536      1.654767
  H       0.163239     29.174265      4.637998
  H       3.466160     27.662574      4.952826
  H       1.835429     27.856060      5.618358
  C       4.603080     29.283669      3.038716
  C       5.095436     27.958310      3.011727
  C       6.475394     27.701225      3.075359
  C       7.413349     28.747319      3.137032
  C       6.936255     30.075307      3.096378
  C       5.559118     30.324353      3.072795
  H       4.397554     27.113146      2.926053
  H       6.828873     26.658017      3.070793
  H       5.213220     31.368729      3.110244
  C       5.277767     21.163576     -0.558038
  C       4.639101     22.486385     -0.182567
  H       5.205103     21.030173     -1.659199
  H       6.362907     21.162190     -0.329348
  C       5.304607     23.532215      0.510957
  C       4.596498     24.727857      0.762273
  C       3.235627     24.855261      0.459181
  C       3.281698     22.649068     -0.503400
  C       2.544859     23.786071     -0.140990
  H       2.759070     21.810052     -0.990717
  H       5.115399     25.548424      1.277895
  H       2.694798     25.769706      0.748447
  C       1.029685     23.740401     -0.260153
  H       0.731118     23.482498     -1.297052
  H       0.602009     24.734761     -0.035727
  C       6.688884     23.372463      1.024301
  C       7.027469     22.241024      1.801212
  C       8.330328     22.039387      2.257712
  C       9.353414     22.962450      1.964086
  C       9.007256     24.124398      1.249067
  C       7.697098     24.329457      0.786571
  H       6.249814     21.508036      2.062515
  H       8.559534     21.131968      2.832715
  H       9.785301     24.870789      1.019024
  H       7.458357     25.231549      0.201865
  C      10.786181     22.671685      2.372627
  C      10.963527     22.423025      3.860885
  H      11.426342     23.526336      2.074522
  H      11.139242     21.799570      1.789306
  C      11.132241     23.546107      4.691453
  C      11.242964     23.442214      6.081694
  C      11.193806     22.167001      6.686983
  C      11.001739     21.042924      5.875656
  C      10.880149     21.141203      4.470683
  C      10.567183     19.903886      3.702736
  H      10.970469     20.042690      6.336520
  H      11.168743     24.545289      4.226006
  C      11.334209     19.467905      2.600945
  C      10.933432     18.363241      1.839092
  C       9.766233     17.645368      2.164347
  C       9.030670     18.039214      3.298872
  C       9.426775     19.146006      4.055954
  H      12.260375     20.001411      2.339752
  H      11.534851     18.053685      0.969579
  H       8.114238     17.491121      3.568807
  H       8.820778     19.465757      4.917585
  C       9.274523     16.532467      1.289547
  Cl      8.030562     17.145026      0.101253
  H       8.772317     15.737054      1.871750
  H      10.087682     16.084987      0.687875
  C      11.364276     22.086193      8.191006
  C      12.416414     23.063273      8.670104
  H      11.600329     21.052615      8.513145
  H      10.389508     22.345085      8.671779
  C      12.469349     24.330712      8.047856
  C      11.450320     24.640686      6.975488
  H      11.741616     25.537177      6.391154
  H      10.480419     24.894966      7.467523
  C      13.355735     22.766517      9.671770
  C      14.337860     23.696302     10.038936
  C      14.428813     24.951691      9.397000
  C      13.469340     25.240256      8.399826
  H      13.515264     26.190271      7.848054
  H      15.045816     23.434299     10.838667
  H      13.325018     21.784032     10.169432
  C      15.500645     25.932568      9.701872
  C      16.683613     25.589065     10.390887
  C      17.686018     26.544515     10.594276
  C      15.383960     27.262193      9.242364
  C      16.395394     28.216458      9.386274
  C      17.574994     27.855232     10.090651
  H      18.600215     26.260370     11.139643
  H      16.841337     24.562930     10.752853
  H      14.463636     27.572359      8.734139
  C      18.683751     28.834991     10.316299
  Cl     18.257475     30.080874     11.589835
  H      18.930191     29.418996      9.408848
  H      19.600769     28.334666     10.677888
  C      16.230723     29.607746      8.789672
  C      14.979789     29.799929      7.963709
  H      17.121741     29.821972      8.157313
  H      16.272487     30.356082      9.609331
  C      14.843547     29.190421      6.697503
  C      13.669057     29.326992      5.946522
  C      12.586815     30.100332      6.425004
  C      12.722338     30.701572      7.695947
  C      13.892532     30.548059      8.451112
  H      15.678434     28.595435      6.293483
  C      11.375850     30.344224      5.599749
  C      10.739662     29.325676      4.853482
  C      10.843508     31.650643      5.535012
  C       9.614844     29.594548      4.051405
  C       9.117938     30.916803      3.981413
  C       9.731596     31.928675      4.736124
  H      11.121375     28.292634      4.920230
  H      11.331729     32.460960      6.096686
  H       9.336230     32.955640      4.684414
  C       7.938967     31.203185      3.085704
  H       7.458893     32.164836      3.355693
  H       8.310182     31.332551      2.039667
  C       8.911141     28.521455      3.236732
  H       9.339087     28.532923      2.204329
  H       9.131206     27.510922      3.637572
  H      13.963733     31.016471      9.445550
  H      11.886330     31.290137      8.103330
  H      13.602675     28.866754      4.948483
324
Coordinates from ORCA-job input E -9763.439113611566
  C      -2.377071      9.134047      2.342451
  C      -3.665580      9.259508      2.903610
  C      -4.356997      8.139838      3.377534
  C      -3.777499      6.858109      3.312556
  C      -2.476725      6.733271      2.784772
  C      -1.787473      7.852987      2.304691
  H      -0.769403      7.738093      1.902173
  H      -1.996779      5.742088      2.757678
  H      -4.139181     10.252455      2.935647
  H      -5.368851      8.258077      3.796049
  C      -4.507395      5.660143      3.841139
  Cl     -4.134478      5.376812      5.604009
  H      -4.215704      4.732901      3.312963
  H      -5.604627      5.783946      3.774013
  C      -0.806458     11.654359     -0.036086
  C      -0.567901     12.747235      0.815903
  C      -1.372132     10.450342      0.414484
  C      -0.867211     12.624891      2.187315
  C      -1.690669     10.336186      1.795309
  H      -0.574745     11.760402     -1.109223
  C      -1.418995     11.419014      2.651916
  H      -1.655574     11.312672      3.723170
  C      -1.794508      9.390909     -0.595013
  C      -3.310268      9.378386     -0.708176
  H      -1.433275      8.382806     -0.314690
  H      -1.337580      9.634577     -1.576664
  C      -4.090989      8.264282     -0.352743
  C      -5.483497      8.377619     -0.280697
  C      -6.142835      9.603197     -0.529276
  C      -5.368628     10.714010     -0.955902
  C      -3.974889     10.564474     -1.052671
  H      -3.603326      7.318445     -0.071400
  H      -6.081376      7.514005      0.048613
  H      -3.375735     11.442795     -1.340966
  C      -7.608662      9.683072     -0.290617
  C      -8.490473      8.759905     -0.892347
  C      -9.865931      8.804700     -0.634887
  C     -10.406651      9.774504      0.230864
  C      -8.154336     10.646386      0.589343
  C      -9.528853     10.690390      0.844565
  H      -8.086007      8.005614     -1.584535
  H     -10.536012      8.075238     -1.117002
  H      -7.483151     11.356708      1.096520
  H      -9.930049     11.440707      1.544134
  C     -11.874984      9.803064      0.530670
  Cl    -12.270640      8.830713      2.023072
  H     -12.471582      9.364447     -0.291053
  H     -12.236100     10.829484      0.730658
  C      -0.635609     13.789627      3.122391
  C       0.426900     14.754115      2.653658
  H      -0.402207     13.422908      4.143521
  H      -1.587226     14.365516      3.227480
  C      -0.068364     14.062726      0.271364
  C       0.697149     14.892126      1.275814
  H      -0.955781     14.653421     -0.060038
  H       0.539777     13.902286     -0.642681
  C       1.129502     15.563241      3.565698
  C       2.054195     16.517039      3.128454
  C       1.634592     15.844898      0.847039
  C       2.312910     16.689569      1.749860
  H       1.807123     15.966841     -0.234208
  H       0.940993     15.443436      4.644725
  H       2.600013     17.126370      3.864678
  C       3.188341     17.775903      1.247217
  C       3.942620     17.637062      0.059763
  C       4.635508     18.722822     -0.486764
  C       4.605384     19.993205      0.123107
  C       3.900003     20.118402      1.336690
  H       3.985453     16.659549     -0.444029
  H       5.200721     18.587749     -1.422977
  C       3.212349     19.033134      1.889654
  H       3.830084     21.100728      1.827248
  H       2.625056     19.187479      2.806486
  C      -5.948300     12.075766     -1.292792
  C      -5.271005     13.212794     -0.545163
  H      -7.041190     12.092372     -1.104991
  H      -5.835981     12.257566     -2.383897
  C      -4.733518     13.021561      0.744162
  C      -4.046374     14.044628      1.403373
  C      -5.121883     14.485190     -1.129995
  C      -4.447140     15.518331     -0.464672
  C      -3.880731     15.318082      0.814056
  H      -4.801652     12.031117      1.218565
  H      -3.587157     13.834503      2.379964
  H      -5.532127     14.669208     -2.136265
  H      -4.350812     16.502554     -0.949522
  C      -3.081962     16.377686      1.483703
  C      -2.148200     17.112157      0.719367
  C      -1.322841     18.098153      1.276232
  C      -3.225666     16.698210      2.862153
  C      -2.342541     17.636525      3.425481
  C      -1.381254     18.320734      2.668915
  H      -2.064926     16.897364     -0.358326
  H      -2.450262     17.885898      4.494386
  C      -4.443275     16.293380      3.684055
  C      -5.440062     17.439125      3.615676
  H      -4.156624     16.104221      4.738117
  H      -4.906621     15.368330      3.294033
  C      -5.750377     18.238679      4.726756
  C      -6.535631     19.391941      4.571485
  C      -7.026904     19.782747      3.311784
  C      -6.739181     18.965854      2.182233
  C      -5.967887     17.810554      2.364561
  H      -5.352639     17.976819      5.720319
  H      -6.759960     20.022362      5.445976
  H      -5.717948     17.206861      1.478946
  C      -7.721725     21.091345      3.152028
  C      -9.057515     21.193859      2.719273
  C      -9.632111     22.448073      2.463398
  C      -8.891263     23.631032      2.640977
  C      -7.566091     23.531109      3.109495
  C      -6.994693     22.283778      3.365892
  H      -9.649250     20.278590      2.564773
  H      -5.946427     22.215745      3.692665
  H      -6.967129     24.446318      3.235327
  H     -10.673508     22.507993      2.108389
  C      -9.497563     24.973193      2.343873
  Cl     -8.553443     25.905714      1.093548
  H      -9.515815     25.625313      3.239435
  H     -10.529885     24.876246      1.958390
  C      -7.124662     19.376067      0.772749
  C      -6.592054     20.745564      0.390884
  H      -8.227123     19.378738      0.645060
  H      -6.738634     18.605339      0.071169
  C      -5.275301     21.135296      0.711150
  C      -4.836203     22.444440      0.474404
  C      -5.697259     23.400345     -0.107047
  C      -7.430886     21.686231     -0.231449
  C      -6.993579     22.989533     -0.483130
  H      -4.595255     20.412587      1.189953
  H      -3.808646     22.733714      0.746995
  H      -8.467664     21.405539     -0.475403
  H      -7.689861     23.729528     -0.903853
  C      -5.316797     24.823898     -0.269127
  C      -4.786496     25.558338      0.809573
  C      -4.560636     26.942910      0.720530
  C      -5.567919     25.505562     -1.479388
  C      -5.300879     26.872669     -1.591787
  C      -4.814503     27.610454     -0.497145
  H      -4.604991     25.043475      1.767084
  H      -5.965225     24.947434     -2.340622
  H      -5.486429     27.388395     -2.547887
  C      -4.138769     27.737133      1.937480
  C      -3.394054     29.012202      1.614634
  C      -3.601950     29.654187      0.376027
  C      -4.615567     29.104441     -0.598152
  H      -5.594809     29.605683     -0.402465
  H      -4.348680     29.389271     -1.637094
  H      -3.538294     27.105071      2.624681
  H      -5.061109     27.997471      2.511748
  C      -2.516553     29.597914      2.542319
  C      -2.886191     30.827209      0.092547
  C      -2.007344     31.416239      1.021432
  C      -1.833292     30.800726      2.289989
  H      -2.360747     29.094852      3.511670
  H      -3.029543     31.321633     -0.882129
  C      -1.244005     32.627741      0.614972
  C      -0.356131     32.554281     -0.480293
  C       0.426635     33.654355     -0.846299
  C      -1.358955     33.857206      1.298306
  C      -0.572895     34.956754      0.933835
  C       0.341115     34.866535     -0.134101
  H      -0.257984     31.602670     -1.024253
  H       1.136187     33.566238     -1.684245
  H      -2.078837     33.949907      2.125689
  H      -0.664027     35.902618      1.491011
  C       1.255349     36.007618     -0.459831
  Cl      2.847738     35.828951      0.416533
  H       0.835879     36.981179     -0.144241
  H       1.502634     36.050531     -1.537232
  C      -0.880888     31.343125      3.346094
  C      -0.378449     18.922367      0.430577
  C      -0.422349     19.300975      3.295862
  C      -0.113424     20.475845      2.396384
  H       0.525118     18.750288      3.509022
  H      -0.798225     19.648216      4.279639
  C      -0.131229     20.302628      0.997105
  H      -0.747791     18.984044     -0.613431
  H       0.604508     18.398187      0.373898
  C       0.152342     21.405876      0.173009
  C       0.220200     21.733329      2.920867
  C       0.547608     22.828727      2.099303
  C       0.505344     22.667450      0.687363
  H       0.136668     21.267120     -0.920966
  H       0.233384     21.875141      4.013801
  C       0.993342     24.095774      2.739174
  C       2.115341     24.098628      3.594115
  C       0.335101     25.322317      2.516010
  C       0.794779     26.506931      3.105531
  C       1.917968     26.510620      3.959137
  C       2.568273     25.282481      4.190375
  H       3.455457     25.254657      4.843589
  H       2.658744     23.156685      3.764955
  H      -0.560685     25.350358      1.875473
  H       0.265540     27.447792      2.894047
  C       2.388701     27.776826      4.669845
  C       0.889668     29.635326      3.956499
  C       1.490814     31.356748      2.389288
  C       0.522324     30.778841      3.231707
  H      -1.288126     31.090306      4.345783
  H      -0.829221     32.445589      3.288886
  C       2.167492     29.046570      3.879348
  C       3.156337     29.663773      3.062474
  C       2.772922     30.808162      2.320358
  H       1.252407     32.251844      1.796429
  H       3.516570     31.285354      1.664841
  H       0.150357     29.179146      4.635872
  H       3.451139     27.661685      4.960396
  H       1.819689     27.857551      5.622929
  C       4.595087     29.277162      3.049272
  C       5.083864     27.950282      3.026477
  C       6.463130     27.688991      3.090583
  C       7.404304     28.734538      3.149683
  C       6.929301     30.063797      3.107262
  C       5.553093     30.315302      3.082714
  H       4.383675     27.106572      2.945179
  H       6.811876     26.642704      3.088016
  H       5.209546     31.360464      3.119718
  C       5.280959     21.186194     -0.534990
  C       4.636408     22.509852     -0.170489
  H       5.221596     21.050387     -1.636602
  H       6.363507     21.187242     -0.293381
  C       5.297284     23.561529      0.519159
  C       4.585355     24.756770      0.765954
  C       3.223854     24.876301      0.460066
  C       3.279561     22.665969     -0.494299
  C       2.538273     23.801072     -0.136969
  H       2.760519     21.822591     -0.978003
  H       5.101393     25.584571      1.277160
  H       2.678277     25.788706      0.745922
  C       1.023429     23.747377     -0.257006
  H       0.726532     23.488263     -1.294071
  H       0.590900     24.739772     -0.032800
  C       6.679079     23.401020      1.037493
  C       7.011049     22.266818      1.812402
  C       8.311721     22.058730      2.270706
  C       9.339491     22.977333      1.980252
  C       9.000864     24.140555      1.263687
  C       7.692398     24.352253      0.799158
  H       6.232075     21.530468      2.060176
  H       8.534266     21.151966      2.848451
  H       9.782917     24.883376      1.035651
  H       7.459973     25.253080      0.209979
  C      10.769972     22.677729      2.390040
  C      10.944555     22.422728      3.877740
  H      11.415490     23.529874      2.096274
  H      11.119530     21.806744      1.802662
  C      11.119878     23.543140      4.710184
  C      11.237540     23.435778      6.099399
  C      11.192549     22.158947      6.701793
  C      10.999850     21.036678      5.888080
  C      10.867951     21.138720      4.484236
  C      10.554526     19.904106      3.712531
  H      10.967552     20.035649      6.347234
  H      11.162845     24.542789      4.246297
  C      11.300171     19.487647      2.588850
  C      10.887881     18.392598      1.819009
  C       9.732475     17.662893      2.159714
  C       9.022828     18.033260      3.318414
  C       9.429499     19.131134      4.082485
  H      12.215664     20.032145      2.313199
  H      11.471272     18.099917      0.931538
  H       8.117426     17.474185      3.602601
  H       8.840410     19.434493      4.961625
  C       9.220981     16.565939      1.276156
  Cl      7.914734     17.190302      0.162040
  H       8.757228     15.746172      1.856486
  H      10.013771     16.149593      0.626914
  C      11.372408     22.074512      8.204580
  C      12.421973     23.055265      8.681927
  H      11.614988     21.041014      8.522131
  H      10.398948     22.326706      8.691687
  C      12.468068     24.324128      8.061880
  C      11.444599     24.633043      6.994162
  H      11.731029     25.531014      6.410078
  H      10.475562     24.883681      7.489741
  C      13.365238     22.760953      9.680440
  C      14.345718     23.693559     10.044978
  C      14.431411     24.949171      9.402875
  C      13.467174     25.235779      8.409973
  H      13.508032     26.186258      7.858746
  H      15.057988     23.432616     10.841233
  H      13.338277     21.778735     10.178855
  C      15.507118     25.928650      9.697623
  C      16.694539     25.582689     10.376986
  C      17.701495     26.535269     10.570906
  C      15.389900     27.258401      9.238653
  C      16.405381     28.209815      9.373060
  C      17.590152     27.845726     10.067051
  H      18.619153     26.249029     11.109305
  H      16.852287     24.556427     10.738562
  H      14.465028     27.572388      8.741237
  C      18.704459     28.821919     10.280916
  Cl     18.295508     30.069766     11.558134
  H      18.943498     29.404545      9.370581
  H      19.623506     28.318603     10.633099
  C      16.241799     29.598983      8.772000
  C      14.987909     29.791183      7.950880
  H      17.130432     29.807994      8.134468
  H      16.289606     30.350839      9.588061
  C      14.844425     29.175675      6.688367
  C      13.668000     29.313404      5.941005
  C      12.590532     30.093361      6.419468
  C      12.733831     30.701828      7.686045
  C      13.906055     30.547266      8.437786
  H      15.675880     28.576456      6.283518
  C      11.377157     30.335923      5.597796
  C      10.737343     29.316076      4.856226
  C      10.845817     31.642613      5.531989
  C       9.609818     29.583761      4.057623
  C       9.114096     30.906745      3.986864
  C       9.731408     31.919798      4.736830
  H      11.117886     28.282923      4.924133
  H      11.336687     32.453922      6.089914
  H       9.336594     32.946950      4.684544
  C       7.932208     31.191874      3.094768
  H       7.452461     32.153121      3.366808
  H       8.300204     31.322611      2.047756
  C       8.902387     28.508044      3.248030
  H       9.328961     28.514413      2.214993
  H       9.121814     27.498850      3.652584
  H      13.984027     31.023226      9.428130
  H      11.901379     31.294749      8.094394
  H      13.595619     28.846884      4.946306
324
Coordinates from ORCA-job input E -9763.439275044262
  C      -2.374289      9.136322      2.354899
  C      -3.663015      9.262495      2.915391
  C      -4.354369      8.143409      3.390944
  C      -3.774853      6.861585      3.327828
  C      -2.474219      6.735987      2.799917
  C      -1.784971      7.855063      2.318410
  H      -0.766922      7.739737      1.915998
  H      -1.994483      5.744699      2.773763
  H      -4.136615     10.255394      2.946044
  H      -5.366040      8.262192      3.809713
  C      -4.504525      5.664364      3.858577
  Cl     -4.130328      5.383428      5.621470
  H      -4.213424      4.736363      3.331418
  H      -5.601767      5.788268      3.792187
  C      -0.798974     11.649968     -0.027424
  C      -0.561479     12.745188      0.821961
  C      -1.365875     10.447320      0.425651
  C      -0.863399     12.626599      2.193183
  C      -1.687096     10.337217      1.806002
  H      -0.564464     11.752463     -1.100287
  C      -1.416463     11.422251      2.660061
  H      -1.654404     11.318773      3.731287
  C      -1.786063      9.384166     -0.580850
  C      -3.301629      9.371493     -0.696818
  H      -1.425903      8.377000     -0.295821
  H      -1.327095      9.624070     -1.562469
  C      -4.082789      8.259118     -0.336795
  C      -5.475544      8.372201     -0.268802
  C      -6.134994      9.595749     -0.526662
  C      -5.360032     10.704511     -0.957311
  C      -3.965884     10.555481     -1.048889
  H      -3.595520      7.315112     -0.048665
  H      -6.073899      7.509807      0.062626
  H      -3.366590     11.432315     -1.341246
  C      -7.601617      9.675845     -0.292250
  C      -8.480919      8.747399     -0.889656
  C      -9.857055      8.791969     -0.635410
  C     -10.401035      9.767004      0.222507
  C      -8.150534     10.643973      0.580370
  C      -9.525652     10.687537      0.832581
  H      -8.073689      7.988414     -1.575028
  H     -10.525239      8.059220     -1.115120
  H      -7.481442     11.357497      1.085742
  H      -9.929466     11.442638      1.525438
  C     -11.870004      9.794982      0.519928
  Cl    -12.267361      8.829184      2.016217
  H     -12.464605      9.351762     -0.300755
  H     -12.232729     10.821918      0.714229
  C      -0.633544     13.794156      3.125218
  C       0.430237     14.757102      2.656031
  H      -0.402308     13.430491      4.147912
  H      -1.585236     14.370375      3.226710
  C      -0.060729     14.059328      0.274875
  C       0.703378     14.891366      1.278389
  H      -0.947748     14.649000     -0.059273
  H       0.548635     13.896437     -0.637882
  C       1.129120     15.570486      3.567090
  C       2.053989     16.523657      3.129164
  C       1.641711     15.843153      0.849013
  C       2.317209     16.691310      1.750875
  H       1.817342     15.961706     -0.232080
  H       0.937158     15.454742      4.645938
  H       2.595258     17.137785      3.864606
  C       3.192019     17.778096      1.247676
  C       3.947082     17.639730      0.060821
  C       4.637148     18.726779     -0.486849
  C       4.605447     19.997280      0.122414
  C       3.898957     20.122275      1.335404
  H       3.991611     16.662173     -0.442600
  H       5.203102     18.592147     -1.422695
  C       3.212817     19.036283      1.888698
  H       3.826025     21.105215      1.824594
  H       2.623912     19.190527      2.804531
  C      -5.938707     12.064933     -1.300139
  C      -5.262509     13.203575     -0.554306
  H      -7.032028     12.082238     -1.115042
  H      -5.823424     12.243473     -2.391423
  C      -4.720794     13.013591      0.733236
  C      -4.035545     14.038698      1.391265
  C      -5.116565     14.475703     -1.140328
  C      -4.443416     15.510650     -0.476460
  C      -3.875731     15.313031      0.802401
  H      -4.781528     12.021756      1.205738
  H      -3.575167     13.829602      2.367487
  H      -5.526677     14.657621     -2.147016
  H      -4.352551     16.495431     -0.960589
  C      -3.079363     16.375251      1.471414
  C      -2.146125     17.110898      0.707369
  C      -1.321474     18.097457      1.264669
  C      -3.223012     16.695326      2.850078
  C      -2.340750     17.634264      3.413693
  C      -1.380507     18.320076      2.657324
  H      -2.059270     16.893534     -0.369471
  H      -2.449178     17.883664      4.482505
  C      -4.439977     16.288701      3.672236
  C      -5.436420     17.435055      3.606916
  H      -4.152560     16.097078      4.725642
  H      -4.903631     15.364572      3.280512
  C      -5.746657     18.232482      4.719693
  C      -6.532132     19.386070      4.566782
  C      -7.022730     19.779966      3.307658
  C      -6.735189     18.965112      2.176742
  C      -5.964444     17.809119      2.356807
  H      -5.350091     17.967826      5.712971
  H      -6.754917     20.015696      5.442233
  H      -5.715280     17.206811      1.469990
  C      -7.716685     21.089494      3.150235
  C      -9.052444     21.194225      2.717792
  C      -9.625573     22.449316      2.463404
  C      -8.883429     23.631142      2.642533
  C      -7.558481     23.529117      3.110956
  C      -6.988527     22.280830      3.365996
  H      -9.645016     20.279857      2.561300
  H      -5.940081     22.211149      3.691775
  H      -6.958489     24.443442      3.238032
  H     -10.666856     22.510768      2.108372
  C      -9.487359     24.974345      2.345991
  Cl     -8.540260     25.905977      1.096953
  H      -9.505181     25.626038      3.241869
  H     -10.519425     24.879592      1.959328
  C      -7.120678     19.377428      0.767970
  C      -6.587216     20.746655      0.386501
  H      -8.223208     19.381223      0.640873
  H      -6.735972     18.606851      0.065510
  C      -5.268586     21.133993      0.701862
  C      -4.828358     22.442325      0.464780
  C      -5.690099     23.400105     -0.112033
  C      -7.426781     21.689072     -0.232149
  C      -6.988447     22.991930     -0.483757
  H      -4.587001     20.409593      1.175403
  H      -3.799265     22.729391      0.733188
  H      -8.464548     21.409757     -0.473402
  H      -7.684696     23.733636     -0.901508
  C      -5.308942     24.823265     -0.273332
  C      -4.778340     25.556501      0.805996
  C      -4.553424     26.941102      0.718469
  C      -5.561065     25.505979     -1.482638
  C      -5.294496     26.873143     -1.593722
  C      -4.808632     27.609873     -0.498266
  H      -4.597820     25.040838      1.763248
  H      -5.958162     24.948465     -2.344342
  H      -5.481797     27.390094     -2.548808
  C      -4.132076     27.734467      1.936222
  C      -3.388748     29.010429      1.614641
  C      -3.597419     29.653313      0.376619
  C      -4.610945     29.103837     -0.597554
  H      -5.590506     29.604106     -0.400966
  H      -4.344831     29.390034     -1.636320
  H      -3.531124     27.102382      2.623097
  H      -5.054925     27.993427      2.510296
  C      -2.512135     29.596157      2.542985
  C      -2.883530     30.827402      0.094353
  C      -2.004973     31.416278      1.023654
  C      -1.830123     30.799808      2.291705
  H      -2.355882     29.092452      3.511904
  H      -3.026502     31.321992     -0.880204
  C      -1.243708     32.629508      0.618474
  C      -0.354918     32.558362     -0.476241
  C       0.426169     33.660067     -0.840965
  C      -1.361813     33.858407      1.302154
  C      -0.577511     34.959583      0.938909
  C       0.337693     34.871702     -0.128210
  H      -0.254464     31.607158     -1.020429
  H       1.136793     33.573381     -1.678111
  H      -2.082909     33.949865      2.128585
  H      -0.670850     35.904904      1.496598
  C       1.251584     36.013960     -0.450864
  Cl      2.840929     35.837761      0.431215
  H       0.829464     36.987003     -0.137215
  H       1.502268     36.056832     -1.527467
  C      -0.878008     31.342281      3.348124
  C      -0.378733     18.923824      0.419241
  C      -0.421190     19.299500      3.285010
  C      -0.112815     20.475267      2.386667
  H       0.526239     18.748474      3.497925
  H      -0.796793     19.645852      4.269227
  C      -0.131900     20.303656      0.987225
  H      -0.748878     18.986197     -0.624419
  H       0.604583     18.400639      0.361454
  C       0.151333     21.407812      0.164451
  C       0.220772     21.732444      2.912398
  C       0.548413     22.828788      2.092027
  C       0.505084     22.668729      0.679915
  H       0.134867     21.270322     -0.929658
  H       0.234389     21.873011      4.005480
  C       0.994039     24.094719      2.733243
  C       2.114879     24.095368      3.589518
  C       0.338131     25.322270      2.509093
  C       0.798032     26.505670      3.099998
  C       1.919423     26.507082      3.955610
  C       2.568409     25.278241      4.186884
  H       3.454320     25.248985      4.841738
  H       2.655966     23.152361      3.762068
  H      -0.554953     25.352113      1.865077
  H       0.269415     27.447166      2.889356
  C       2.390530     27.771348      4.668193
  C       0.890272     29.631177      3.957431
  C       1.495211     31.357339      2.396467
  C       0.524759     30.776809      3.234743
  H      -1.285850     31.090594      4.347862
  H      -0.825620     32.444638      3.290021
  C       2.168118     29.042362      3.880625
  C       3.158159     29.661361      3.067256
  C       2.777192     30.808468      2.328160
  H       1.258856     32.256215      1.808511
  H       3.522302     31.286793      1.675175
  H       0.150274     29.174672      4.635795
  H       3.453455     27.655470      4.956227
  H       1.823248     27.849781      5.622470
  C       4.596515     29.273345      3.055245
  C       5.086221     27.946606      3.029180
  C       6.466003     27.686351      3.094865
  C       7.405687     28.732445      3.158568
  C       6.929333     30.061120      3.120765
  C       5.553428     30.311610      3.094853
  H       4.386700     27.102506      2.946073
  H       6.816528     26.640751      3.088148
  H       5.208875     31.356263      3.136285
  C       5.282501     21.190300     -0.533867
  C       4.635013     22.514062     -0.174445
  H       5.230262     21.052839     -1.635586
  H       6.363440     21.192085     -0.285068
  C       5.295011     23.569441      0.510221
  C       4.581960     24.764473      0.753589
  C       3.220106     24.881106      0.449829
  C       3.278091     22.668260     -0.498926
  C       2.536070     23.804260     -0.145211
  H       2.759979     21.823828     -0.981768
  H       5.096267     25.593318      1.263561
  H       2.674658     25.794915      0.732119
  C       1.021511     23.749245     -0.264237
  H       0.723919     23.490213     -1.301093
  H       0.588220     24.741216     -0.039333
  C       6.676440     23.410297      1.030458
  C       7.004018     22.278294      1.810017
  C       8.303188     22.068332      2.271372
  C       9.334096     22.983282      1.980299
  C       8.999888     24.144250      1.257670
  C       7.692767     24.357469      0.789289
  H       6.223376     21.543024      2.055615
  H       8.520735     21.164298      2.853850
  H       9.784365     24.883938      1.027836
  H       7.463763     25.256202      0.195667
  C      10.763837     22.681364      2.393610
  C      10.937877     22.421111      3.881036
  H      11.410580     23.534156      2.104513
  H      11.114853     21.814148      1.801890
  C      11.124272     23.540059      4.712590
  C      11.242972     23.433187      6.101691
  C      11.193903     22.157463      6.705343
  C      10.993559     21.035754      5.892531
  C      10.855800     21.137218      4.488995
  C      10.524651     19.905692      3.719726
  H      10.954293     20.035699      6.353334
  H      11.175117     24.538954      4.247835
  C      11.250314     19.481943      2.585913
  C      10.809213     18.399248      1.814085
  C       9.644505     17.688789      2.163285
  C       8.958894     18.060660      3.335991
  C       9.394627     19.145520      4.101970
  H      12.174378     20.008618      2.304924
  H      11.374213     18.105121      0.915281
  H       8.047971     17.515196      3.628633
  H       8.821180     19.453175      4.989893
  C       9.096021     16.612579      1.276452
  Cl      7.749099     17.266370      0.228111
  H       8.649832     15.782197      1.855511
  H       9.861675     16.207647      0.588657
  C      11.376190     22.073502      8.208118
  C      12.425986     23.054324      8.685629
  H      11.619549     21.039925      8.525004
  H      10.403222     22.324316      8.697013
  C      12.475432     24.321503      8.063196
  C      11.455719     24.630960      6.993272
  H      11.748082     25.524202      6.406648
  H      10.487083     24.889180      7.485752
  C      13.366671     22.761751      9.687190
  C      14.347567     23.694433     10.051805
  C      14.436947     24.947877      9.405505
  C      13.474670     25.232914      8.410864
  H      13.518480     26.181247      7.856249
  H      15.059491     23.433849     10.848517
  H      13.336075     21.781799     10.189833
  C      15.512992     25.927770      9.698323
  C      16.699609     25.581710     10.377891
  C      17.709222     26.532280     10.567557
  C      15.398511     27.256452      9.234968
  C      16.417069     28.205729      9.364779
  C      17.601214     27.840951     10.059071
  H      18.626168     26.245757     11.107002
  H      16.855318     24.556038     10.741944
  H      14.474179     27.571101      8.737037
  C      18.718987     28.814459     10.267101
  Cl     18.315271     30.069469     11.538905
  H      18.958825     29.392082      9.353812
  H      19.636813     28.309811     10.620548
  C      16.256820     29.593174      8.758921
  C      15.000248     29.786199      7.942669
  H      17.143289     29.795515      8.116284
  H      16.311182     30.348534      9.571362
  C      14.850996     29.169476      6.681515
  C      13.671603     29.307308      5.939161
  C      12.596561     30.088137      6.421592
  C      12.745553     30.697254      7.687111
  C      13.920770     30.542769      8.433810
  H      15.679826     28.568351      6.274120
  C      11.381198     30.332249      5.603908
  C      10.740185     29.314049      4.861696
  C      10.848492     31.638336      5.542613
  C       9.610732     29.581718      4.067019
  C       9.113479     30.903551      4.000596
  C       9.731854     31.915766      4.751041
  H      11.121379     28.281932      4.925598
  H      11.340097     32.449215      6.100489
  H       9.335399     32.942466      4.702513
  C       7.929581     31.190691      3.112628
  H       7.448129     32.149280      3.391084
  H       8.295177     31.328471      2.065651
  C       8.903641     28.506380      3.257284
  H       9.330755     28.512279      2.224465
  H       9.122893     27.497227      3.662103
  H      14.002518     31.018193      9.424096
  H      11.915263     31.290735      8.099008
  H      13.594995     28.840145      4.945110
324
Coordinates from ORCA-job input E -9763.439373508503
  C      -2.361650      9.134249      2.355991
  C      -3.650083      9.257962      2.917553
  C      -4.338292      8.137621      3.394737
  C      -3.755754      6.857142      3.332317
  C      -2.455165      6.734131      2.803617
  C      -1.769085      7.854410      2.320487
  H      -0.751097      7.741354      1.917303
  H      -1.973060      5.743978      2.778193
  H      -4.126316     10.249689      2.946995
  H      -5.349899      8.254264      3.814259
  C      -4.482592      5.658586      3.863959
  Cl     -4.106889      5.379046      5.626654
  H      -4.189880      4.731019      3.336913
  H      -5.580110      5.780270      3.797830
  C      -0.794546     11.649131     -0.030521
  C      -0.557875     12.745399      0.817670
  C      -1.358824     10.445811      0.424255
  C      -0.857158     12.627004      2.189557
  C      -1.677632     10.336043      1.805222
  H      -0.562542     11.751411     -1.103953
  C      -1.407230     11.422026      2.658141
  H      -1.642989     11.318836      3.729884
  C      -1.778831      9.381649     -0.581441
  C      -3.294507      9.368408     -0.696426
  H      -1.418283      8.374757     -0.296140
  H      -1.320624      9.621331     -1.563451
  C      -4.075033      8.256489     -0.333349
  C      -5.467803      8.369173     -0.264576
  C      -6.127819      9.592147     -0.523967
  C      -5.353529     10.700183     -0.957487
  C      -3.959463     10.551247     -1.050689
  H      -3.587403      7.312841     -0.044712
  H      -6.065321      7.507590      0.070510
  H      -3.360779     11.427841     -1.345020
  C      -7.594223      9.672447     -0.288146
  C      -8.473580      8.742544     -0.883330
  C      -9.849516      8.786890     -0.628216
  C     -10.393211      9.762882      0.228827
  C      -8.142838     10.641604      0.583451
  C      -9.517829     10.684837      0.836638
  H      -8.066453      7.983074     -1.568214
  H     -10.517635      8.052701     -1.105801
  H      -7.473936     11.356318      1.087384
  H      -9.921329     11.440402      1.529175
  C     -11.861956      9.790552      0.527371
  Cl    -12.258292      8.821194      2.021465
  H     -12.457303      9.349499     -0.293953
  H     -12.224172     10.817172      0.724281
  C      -0.627514     13.795664      3.120191
  C       0.434428     14.759519      2.648637
  H      -0.394400     13.433285      4.142926
  H      -1.579821     14.370767      3.222493
  C      -0.061094     14.060483      0.269046
  C       0.704316     14.893934      1.270365
  H      -0.950504     14.648111     -0.062398
  H       0.545750     13.898669     -0.645580
  C       1.135384     15.572914      3.558052
  C       2.058084     16.527095      3.117879
  C       1.639965     15.847263      0.838682
  C       2.316896     16.696109      1.738866
  H       1.812509     15.966562     -0.242820
  H       0.947047     15.456051      4.637421
  H       2.601615     17.140668      3.852118
  C       3.188987     17.784350      1.233879
  C       3.939348     17.648949      0.043888
  C       4.628157     18.737194     -0.503257
  C       4.600967     20.005549      0.110373
  C       3.897634     20.127938      1.325452
  H       3.983213     16.672388     -0.461419
  H       5.190501     18.605006     -1.441691
  C       3.212565     19.041025      1.878057
  H       3.826869     21.109727      1.817269
  H       2.626628     19.193246      2.796177
  C      -5.932657     12.059932     -1.301944
  C      -5.258215     13.199152     -0.555236
  H      -7.026358     12.076513     -1.119213
  H      -5.815179     12.238481     -2.392999
  C      -4.717306     13.009996      0.732753
  C      -4.033191     14.035766      1.391067
  C      -5.114600     14.471900     -1.140716
  C      -4.442610     15.507325     -0.476634
  C      -3.873426     15.309693      0.801663
  H      -4.779838     12.018823      1.206480
  H      -3.571910     13.825812      2.366739
  H      -5.526788     14.654285     -2.146472
  H      -4.350821     16.491975     -0.960902
  C      -3.076112     16.371844      1.469353
  C      -2.145310     17.108370      0.703294
  C      -1.320384     18.095622      1.258818
  C      -3.216921     16.691528      2.848318
  C      -2.333855     17.630720      3.410213
  C      -1.375642     18.317191      2.651811
  H      -2.062688     16.893365     -0.374359
  H      -2.439053     17.878793      4.479658
  C      -4.431970     16.283757      3.672786
  C      -5.428992     17.429711      3.609378
  H      -4.142511     16.091908      4.725602
  H      -4.895579     15.359337      3.281588
  C      -5.737522     18.226869      4.722882
  C      -6.522617     19.380848      4.571368
  C      -7.014713     19.775403      3.313000
  C      -6.730158     18.960201      2.181676
  C      -5.959374     17.803897      2.360287
  H      -5.339492     17.961895      5.715490
  H      -6.743713     20.010465      5.447257
  H      -5.712761     17.201089      1.473037
  C      -7.707014     21.086030      3.156938
  C      -9.043160     21.193490      2.726272
  C      -9.614401     22.449735      2.473652
  C      -8.870112     23.630145      2.653220
  C      -7.545051     23.525434      3.120662
  C      -6.976824     22.275907      3.373573
  H      -9.637560     20.280333      2.569646
  H      -5.928403     22.204096      3.698992
  H      -6.943454     24.438576      3.248677
  H     -10.655832     22.513187      2.119409
  C      -9.471032     24.974664      2.357360
  Cl     -8.523919     25.902621      1.105049
  H      -9.484444     25.627335      3.252570
  H     -10.504205     24.882994      1.972949
  C      -7.117752     19.373072      0.773609
  C      -6.583317     20.741565      0.391080
  H      -8.220509     19.378110      0.648495
  H      -6.735378     18.601980      0.070433
  C      -5.263881     21.127430      0.704627
  C      -4.822120     22.434868      0.465767
  C      -5.683228     23.393227     -0.111065
  C      -7.422521     21.684620     -0.227140
  C      -6.982640     22.986551     -0.480720
  H      -4.582792     20.402652      1.178364
  H      -3.792359     22.720741      0.732504
  H      -8.460921     21.406279     -0.466668
  H      -7.678054     23.729091     -0.898339
  C      -5.300681     24.815739     -0.275333
  C      -4.771141     25.551240      0.803017
  C      -4.545350     26.935529      0.712525
  C      -5.550709     25.495693     -1.486586
  C      -5.283220     26.862473     -1.600521
  C      -4.798324     27.601539     -0.506189
  H      -4.591741     25.037467      1.761482
  H      -5.947481     24.936394     -2.347287
  H      -5.468509     27.377188     -2.557210
  C      -4.125933     27.731567      1.929229
  C      -3.382926     29.007421      1.606507
  C      -3.589036     29.647470      0.366538
  C      -4.599629     29.095091     -0.608995
  H      -5.579596     29.596427     -0.417187
  H      -4.330254     29.378124     -1.647828
  H      -3.525837     27.101082      2.618276
  H      -5.049978     27.990878      2.501231
  C      -2.508508     29.595485      2.535535
  C      -2.874739     30.821050      0.083245
  C      -1.998402     31.412166      1.013123
  C      -1.826112     30.798697      2.282920
  H      -2.353897     29.093817      3.505765
  H      -3.016255     31.314639     -0.891965
  C      -1.235109     32.623665      0.606391
  C      -0.341823     32.547621     -0.484406
  C       0.441962     33.647154     -0.850021
  C      -1.354606     33.855116      1.285102
  C      -0.567553     34.954105      0.921014
  C       0.352092     34.861403     -0.141874
  H      -0.239989     31.594211     -1.024446
  H       1.156226     33.556090     -1.683591
  H      -2.078277     33.950763      2.108807
  H      -0.661889     35.901347      1.475259
  C       1.268628     36.001597     -0.464740
  Cl      2.852482     35.829020      0.427596
  H       0.845085     36.976421     -0.158580
  H       1.525308     36.038938     -1.540151
  C      -0.876314     31.344630      3.339691
  C      -0.379862     18.922510      0.411449
  C      -0.416078     19.297729      3.277278
  C      -0.111433     20.473888      2.378406
  H       0.532568     18.747984      3.488144
  H      -0.789695     19.643496      4.262490
  C      -0.132809     20.302388      0.978984
  H      -0.751913     18.984395     -0.631545
  H       0.603662     18.399884      0.352158
  C       0.146997     21.407069      0.155865
  C       0.221839     21.731351      2.903497
  C       0.546504     22.828198      2.082650
  C       0.500027     22.668485      0.670590
  H       0.127132     21.269984     -0.938246
  H       0.237626     21.871803      3.996566
  C       0.992017     24.094606      2.723341
  C       2.112888     24.095066      3.579695
  C       0.335751     25.322279      2.500218
  C       0.794863     26.505265      3.092543
  C       1.915995     26.506351      3.948278
  C       2.565814     25.277648      4.178148
  H       3.451605     25.248213      4.833154
  H       2.654685     23.152415      3.751677
  H      -0.558472     25.351821      1.857925
  H       0.266590     27.446968      2.882153
  C       2.386965     27.769562      4.662629
  C       0.889071     29.631022      3.951010
  C       1.499302     31.360123      2.395289
  C       0.526450     30.778541      3.229959
  H      -1.286021     31.096186      4.339504
  H      -0.824029     32.446765      3.278019
  C       2.166774     29.041689      3.876278
  C       3.159373     29.661748      3.066606
  C       2.781095     30.810573      2.328721
  H       1.264425     32.260024      1.808336
  H       3.528075     31.289550      1.678396
  H       0.147002     29.173566      4.626457
  H       3.449455     27.652466      4.951673
  H       1.818646     27.847256      5.616393
  C       4.597808     29.273205      3.057818
  C       5.087667     27.946674      3.026324
  C       6.467201     27.685885      3.095118
  C       7.406948     28.731773      3.168177
  C       6.930670     30.060688      3.135349
  C       5.554708     30.311126      3.106084
  H       4.388662     27.103090      2.934155
  H       6.816871     26.639837      3.085571
  H       5.209985     31.355567      3.150838
  C       5.280296     21.199304     -0.541885
  C       4.630202     22.522421     -0.184265
  H       5.234322     21.062539     -1.643960
  H       6.359663     21.200666     -0.286645
  C       5.288044     23.581202      0.498003
  C       4.572993     24.775820      0.737651
  C       3.210561     24.888361      0.434020
  C       3.272829     22.672732     -0.508106
  C       2.528504     23.807821     -0.156456
  H       2.755907     21.825461     -0.987220
  H       5.086522     25.609067      1.242003
  H       2.663107     25.800854      0.716228
  C       1.014000     23.748977     -0.275061
  H       0.716690     23.487449     -1.311365
  H       0.578376     24.740257     -0.051738
  C       6.667873     23.424117      1.023395
  C       6.990329     22.295631      1.810033
  C       8.286748     22.086465      2.278979
  C       9.319912     22.999448      1.989733
  C       8.990315     24.157555      1.260371
  C       7.685790     24.369861      0.784123
  H       6.207286     21.563539      2.057109
  H       8.499841     21.184150      2.865158
  H       9.776313     24.896201      1.032350
  H       7.460298     25.266509      0.186041
  C      10.748025     22.696941      2.409296
  C      10.918353     22.431873      3.896557
  H      11.395809     23.550976      2.126395
  H      11.102771     21.833345      1.814201
  C      11.115128     23.548468      4.729081
  C      11.237539     23.439483      6.117851
  C      11.185511     22.163054      6.719684
  C      10.974863     21.043826      5.905958
  C      10.829866     21.147763      4.503554
  C      10.479517     19.922264      3.733573
  H      10.932060     20.043533      6.366017
  H      11.172734     24.547391      4.265156
  C      11.174759     19.505064      2.578820
  C      10.701985     18.439850      1.800897
  C       9.537834     17.737471      2.166886
  C       8.884674     18.099417      3.361321
  C       9.349712     19.168853      4.131111
  H      12.094182     20.029706      2.279536
  H      11.244025     18.151272      0.886295
  H       7.973387     17.561535      3.666435
  H       8.797692     19.472422      5.033884
  C       8.951106     16.684418      1.276801
  Cl      7.537865     17.357249      0.331728
  H       8.545584     15.830164      1.851165
  H       9.680130     16.311388      0.533447
  C      11.374840     22.074700      8.221274
  C      12.427220     23.053319      8.697512
  H      11.619847     21.039967      8.533302
  H      10.404236     22.322917      8.716217
  C      12.478131     24.321255      8.076942
  C      11.457283     24.635844      7.009677
  H      11.752117     25.528144      6.422560
  H      10.490649     24.897945      7.504034
  C      13.369899     22.757105      9.696257
  C      14.354693     23.686335     10.059355
  C      14.445492     24.940319      9.414361
  C      13.480866     25.229351      8.423148
  H      13.525289     26.178653      7.870316
  H      15.067535     23.423350     10.854466
  H      13.338776     21.776194     10.196999
  C      15.524984     25.917562      9.703378
  C      16.713527     25.568776     10.378253
  C      17.726395     26.517098     10.562639
  C      15.411583     27.246176      9.239806
  C      16.433327     28.192727      9.363557
  C      17.619770     27.825320     10.052573
  H      18.645134     26.228722     11.098052
  H      16.867552     24.543123     10.743095
  H      14.485309     27.563237      8.747123
  C      18.741220     28.796108     10.253812
  Cl     18.346003     30.055522     11.523902
  H      18.979171     29.370621      9.338066
  H      19.658971     28.289662     10.604906
  C      16.274645     29.578829      8.753836
  C      15.015181     29.771884      7.941898
  H      17.159075     29.776343      8.106920
  H      16.334124     30.336894      9.563385
  C      14.861925     29.157480      6.679991
  C      13.679864     29.296253      5.941776
  C      12.606015     30.076016      6.429057
  C      12.759483     30.682835      7.695145
  C      13.937153     30.527427      8.437620
  H      15.690039     28.558465      6.268040
  C      11.387872     30.322285      5.616111
  C      10.744815     29.307060      4.871414
  C      10.854547     31.628516      5.561222
  C       9.612829     29.577687      4.080874
  C       9.114901     30.899767      4.021287
  C       9.735725     31.908937      4.773927
  H      11.126523     28.274559      4.929269
  H      11.347733     32.437694      6.120154
  H       9.339080     32.935810      4.730783
  C       7.929334     31.191707      3.137313
  H       7.446307     32.146712      3.425391
  H       8.293352     31.340810      2.091296
  C       8.904596     28.504278      3.269295
  H       9.333753     28.509322      2.237315
  H       9.121620     27.494554      3.674040
  H      14.022413     31.002498      9.427781
  H      11.930674     31.275306      8.111449
  H      13.600448     28.830894      4.947107
324
Coordinates from ORCA-job input E -9763.439492681209
  C      -2.347073      9.125107      2.353269
  C      -3.634647      9.243909      2.917787
  C      -4.317666      8.120861      3.396024
  C      -3.730730      6.842512      3.331328
  C      -2.430756      6.724493      2.799922
  C      -1.749829      7.847511      2.315806
  H      -0.732314      7.738398      1.910337
  H      -1.945239      5.736054      2.772724
  H      -4.114354     10.233978      2.948862
  H      -5.328885      8.233562      3.817558
  C      -4.452215      5.641061      3.863693
  Cl     -4.072463      5.362107      5.625618
  H      -4.156900      4.714836      3.335754
  H      -5.550282      5.758772      3.799332
  C      -0.800834     11.647337     -0.038512
  C      -0.565730     12.744061      0.809295
  C      -1.357292     10.441212      0.418027
  C      -0.858235     12.623456      2.182445
  C      -1.669711     10.329353      1.800343
  H      -0.573464     11.751176     -1.112778
  C      -1.400608     11.415876      2.652762
  H      -1.632156     11.311359      3.725295
  C      -1.777769      9.376752     -0.587106
  C      -3.293697      9.361951     -0.698589
  H      -1.415390      8.370316     -0.302658
  H      -1.322096      9.617366     -1.570039
  C      -4.072487      8.250402     -0.330793
  C      -5.465139      8.362354     -0.258966
  C      -6.126588      9.584200     -0.520243
  C      -5.354174     10.691843     -0.958016
  C      -3.960267     10.543492     -1.054316
  H      -3.583428      7.308084     -0.040233
  H      -6.061328      7.501067      0.079338
  H      -3.362883     11.419596     -1.352717
  C      -7.592437      9.664088     -0.281642
  C      -8.471991      8.731688     -0.872632
  C      -9.847461      8.775712     -0.615485
  C     -10.390546      9.754236      0.239015
  C      -8.140373     10.635891      0.587350
  C      -9.515031     10.678937      0.842405
  H      -8.065242      7.970255     -1.555558
  H     -10.515818      8.039637     -1.089827
  H      -7.471358     11.353326      1.087277
  H      -9.918116     11.436572      1.532926
  C     -11.858571      9.780834      0.540561
  Cl    -12.249830      8.811947      2.036265
  H     -12.455344      9.338319     -0.278941
  H     -12.221448     10.807164      0.737676
  C      -0.628503     13.791828      3.113243
  C       0.426868     14.760079      2.636738
  H      -0.388070     13.429103      4.134171
  H      -1.582548     14.362929      3.221642
  C      -0.078908     14.061921      0.259005
  C       0.687807     14.897678      1.257047
  H      -0.973036     14.645460     -0.066837
  H       0.523785     13.903905     -0.659027
  C       1.131949     15.572910      3.543345
  C       2.049554     16.529918      3.099037
  C       1.617289     15.854707      0.821156
  C       2.297385     16.703482      1.718599
  H       1.781778     15.977134     -0.261254
  H       0.951490     15.452886      4.623714
  H       2.597112     17.142682      3.830955
  C       3.165197     17.793112      1.210627
  C       3.901866     17.663982      0.011491
  C       4.591057     18.753164     -0.533546
  C       4.577857     20.015848      0.092024
  C       3.885820     20.132015      1.314046
  H       3.935648     16.691471     -0.502275
  H       5.144386     18.625698     -1.477967
  C       3.200649     19.044333      1.864349
  H       3.825425     21.109908      1.814615
  H       2.624964     19.191700      2.789769
  C      -5.935243     12.050823     -1.302883
  C      -5.262850     13.191674     -0.556373
  H      -7.028973     12.065838     -1.120274
  H      -5.817768     12.229267     -2.393965
  C      -4.718516     13.003278      0.730305
  C      -4.034805     14.030321      1.387125
  C      -5.123532     14.465171     -1.141667
  C      -4.452040     15.501838     -0.478902
  C      -3.879326     15.304821      0.797829
  H      -4.776714     12.011639      1.203644
  H      -3.571654     13.821377      2.362075
  H      -5.537508     14.646655     -2.146852
  H      -4.363745     16.487261     -0.962607
  C      -3.081060     16.367641      1.463154
  C      -2.156119     17.107764      0.693495
  C      -1.330917     18.096297      1.246344
  C      -3.215716     16.684669      2.843289
  C      -2.331896     17.624827      3.402224
  C      -1.379211     18.314868      2.640043
  H      -2.079360     16.895560     -0.385169
  H      -2.432337     17.871069      4.472548
  C      -4.427390     16.275595      3.671923
  C      -5.423353     17.422655      3.613326
  H      -4.134045     16.082352      4.723402
  H      -4.893051     15.352064      3.280981
  C      -5.724646     18.220881      4.727997
  C      -6.506642     19.377352      4.579673
  C      -7.003006     19.773076      3.323404
  C      -6.726160     18.956583      2.190995
  C      -5.958161     17.798015      2.366445
  H      -5.322028     17.955565      5.718663
  H      -6.722326     20.007571      5.456467
  H      -5.716401     17.194879      1.478112
  C      -7.692374     21.085493      3.169664
  C      -9.029701     21.196081      2.743632
  C      -9.598613     22.453592      2.491893
  C      -8.850500     23.632185      2.667205
  C      -7.524025     23.524485      3.130275
  C      -6.958191     22.273701      3.382447
  H      -9.627181     20.284382      2.590311
  H      -5.908805     22.199450      3.704191
  H      -6.919617     24.436208      3.255339
  H     -10.641061     22.519388      2.141075
  C      -9.450177     24.977859      2.373329
  Cl     -8.504637     25.905064      1.119553
  H      -9.461008     25.630194      3.268858
  H     -10.484344     24.887719      1.991236
  C      -7.119090     19.370252      0.784663
  C      -6.581751     20.736978      0.399692
  H      -8.222368     19.378853      0.664702
  H      -6.742262     18.598022      0.079739
  C      -5.260621     21.119660      0.710496
  C      -4.815464     22.425682      0.468614
  C      -5.674832     23.385112     -0.109208
  C      -7.419447     21.681363     -0.218459
  C      -6.976071     22.981334     -0.475713
  H      -4.580994     20.393624      1.184606
  H      -3.784356     22.709395      0.733463
  H      -8.459300     21.405949     -0.454958
  H      -7.670035     23.724984     -0.893718
  C      -5.288967     24.806377     -0.276873
  C      -4.758954     25.543939      0.799769
  C      -4.530295     26.927627      0.705571
  C      -5.536084     25.483256     -1.490515
  C      -5.265266     26.849042     -1.608227
  C      -4.780104     27.590446     -0.515499
  H      -4.581487     25.032599      1.759915
  H      -5.933208     24.922292     -2.349971
  H      -5.448134     27.361255     -2.566726
  C      -4.112027     27.725879      1.921198
  C      -3.369429     29.001711      1.597149
  C      -3.571168     29.637939      0.354589
  C      -4.577800     29.083148     -0.623603
  H      -5.557604     29.587598     -0.439391
  H      -4.302216     29.360902     -1.662258
  H      -3.511756     27.096687      2.611232
  H      -5.036429     27.985269      2.492530
  C      -2.499178     29.593470      2.527984
  C      -2.855904     30.810778      0.070280
  C      -1.983227     31.404945      1.001519
  C      -1.816390     30.796223      2.274258
  H      -2.349094     29.095497      3.500826
  H      -2.993463     31.301120     -0.907153
  C      -1.216505     32.613806      0.593488
  C      -0.316128     32.531130     -0.490890
  C       0.472252     33.627503     -0.856011
  C      -1.338877     33.848614      1.265528
  C      -0.547287     34.944498      0.901909
  C       0.379876     34.844990     -0.153825
  H      -0.212425     31.575014     -1.025773
  H       1.192151     33.531346     -1.684152
  H      -2.068199     33.949317      2.083640
  H      -0.643638     35.894475      1.451108
  C       1.301967     35.981271     -0.474330
  Cl      2.877114     35.808723      0.433284
  H       0.878364     36.958720     -0.176742
  H       1.568533     36.012462     -1.547528
  C      -0.869562     31.345846      3.331848
  C      -0.397748     18.927474      0.394946
  C      -0.419427     19.296825      3.262668
  C      -0.120735     20.474693      2.364214
  H       0.531310     18.749076      3.469150
  H      -0.790002     19.640623      4.249710
  C      -0.149514     20.306296      0.964544
  H      -0.777518     18.991827     -0.645124
  H       0.586378     18.407050      0.326881
  C       0.126221     21.412888      0.142371
  C       0.213525     21.731306      2.890419
  C       0.533490     22.830054      2.070533
  C       0.480701     22.673409      0.658315
  H       0.103055     21.277728     -0.951918
  H       0.234000     21.869461      3.983701
  C       0.982083     24.095164      2.712134
  C       2.107572     24.093806      3.562595
  C       0.325082     25.323498      2.494973
  C       0.787854     26.505339      3.087444
  C       1.912826     26.504294      3.938453
  C       2.563614     25.274906      4.161790
  H       3.452525     25.243672      4.812449
  H       2.651024     23.151147      3.728728
  H      -0.572049     25.354796      1.856493
  H       0.258581     27.447470      2.881909
  C       2.387074     27.765546      4.655110
  C       0.893202     29.630132      3.943938
  C       1.510020     31.364665      2.396747
  C       0.533812     30.780352      3.225772
  H      -1.281310     31.099325      4.331309
  H      -0.818086     32.447817      3.267547
  C       2.170720     29.040213      3.871486
  C       3.166481     29.662388      3.067166
  C       2.791714     30.814389      2.332402
  H       1.277678     32.266917      1.812312
  H       3.541496     31.295400      1.686788
  H       0.148565     29.170949      4.615372
  H       3.449131     27.645054      4.944370
  H       1.818499     27.842920      5.608779
  C       4.604944     29.273673      3.063127
  C       5.094112     27.947216      3.028585
  C       6.473132     27.685609      3.101105
  C       7.413697     28.730233      3.180590
  C       6.938593     30.059486      3.150807
  C       5.562477     30.310944      3.117985
  H       4.394719     27.104348      2.932165
  H       6.822057     26.639877      3.087955
  H       5.218151     31.355458      3.164438
  C       5.260358     21.211427     -0.552831
  C       4.608723     22.532564     -0.190831
  H       5.218233     21.080080     -1.655712
  H       6.338704     21.210931     -0.293341
  C       5.263797     23.590024      0.495978
  C       4.547997     24.783954      0.734640
  C       3.186363     24.897136      0.427445
  C       3.252168     22.683350     -0.518447
  C       2.506271     23.817605     -0.167017
  H       2.737063     21.837307     -1.001650
  H       5.059520     25.614449      1.244855
  H       2.638555     25.809844      0.708296
  C       0.991794     23.756295     -0.286203
  H       0.695238     23.495653     -1.322949
  H       0.554164     24.746364     -0.061553
  C       6.642837     23.436526      1.024135
  C       6.968276     22.308239      1.809956
  C       8.263884     22.105354      2.284007
  C       9.293002     23.024986      2.001221
  C       8.960205     24.182084      1.271922
  C       7.656691     24.388027      0.790610
  H       6.188861     21.570486      2.051494
  H       8.479009     21.203062      2.869836
  H       9.742890     24.925767      1.048893
  H       7.428928     25.284444      0.193015
  C      10.721833     22.728976      2.422158
  C      10.894449     22.460391      3.908530
  H      11.364844     23.587700      2.142707
  H      11.082102     21.869715      1.824307
  C      11.095933     23.574997      4.742865
  C      11.223442     23.463088      6.131105
  C      11.169519     22.185706      6.730585
  C      10.952682     21.068854      5.915452
  C      10.804900     21.175345      4.513806
  C      10.447517     19.951560      3.744387
  H      10.910890     20.067667      6.373620
  H      11.152393     24.574939      4.280973
  C      11.133218     19.534326      2.584140
  C      10.652672     18.470582      1.808813
  C       9.490972     17.769295      2.183568
  C       8.850012     18.128298      3.385727
  C       9.321923     19.196859      4.152102
  H      12.054204     20.053971      2.281271
  H      11.185041     18.184460      0.887781
  H       7.940460     17.591277      3.697359
  H       8.780048     19.497481      5.061946
  C       8.893934     16.718980      1.297217
  Cl      7.432494     17.378791      0.418873
  H       8.526618     15.846888      1.870621
  H       9.602447     16.373745      0.521316
  C      11.363495     22.092754      8.231175
  C      12.421373     23.066025      8.705569
  H      11.606250     21.056413      8.539589
  H      10.395641     22.343252      8.730207
  C      12.475753     24.335015      8.087409
  C      11.452466     24.657011      7.024167
  H      11.750173     25.548821      6.437034
  H      10.488979     24.923685      7.522286
  C      13.365910     22.763324      9.700696
  C      14.356129     23.686982     10.062654
  C      14.450484     24.941842      9.420091
  C      13.484064     25.237462      8.432326
  H      13.531125     26.187711      7.881407
  H      15.070023     23.419168     10.855210
  H      13.331841     21.781457     10.199367
  C      15.535156     25.913611      9.707565
  C      16.724081     25.559753     10.379613
  C      17.741092     26.504239     10.561607
  C      15.425950     27.242571      9.244556
  C      16.451574     28.184926      9.365381
  C      17.638284     27.812999     10.051649
  H      18.659992     26.212389     11.094863
  H      16.874787     24.533504     10.744222
  H      14.499737     27.563077      8.754161
  C      18.764000     28.779491     10.249679
  Cl     18.376474     30.041483     11.519583
  H      19.002086     29.352404      9.332956
  H      19.680530     28.269774     10.599209
  C      16.295766     29.571226      8.755082
  C      15.035271     29.765557      7.944622
  H      17.179747     29.766139      8.106859
  H      16.357617     30.329644      9.564107
  C      14.880140     29.152117      6.682395
  C      13.696129     29.289735      5.946799
  C      12.622201     30.067561      6.437115
  C      12.777515     30.673114      7.703634
  C      13.957103     30.518884      8.443426
  H      15.707897     28.553937      6.268532
  C      11.401589     30.313760      5.627534
  C      10.755743     29.299431      4.883689
  C      10.868550     31.620299      5.575562
  C       9.621236     29.571703      4.096424
  C       9.124225     30.894311      4.039452
  C       9.747766     31.902132      4.791691
  H      11.137313     28.266340      4.939338
  H      11.363362     32.428583      6.134343
  H       9.351961     32.929404      4.750331
  C       7.937612     31.190166      3.158039
  H       7.454824     32.143599      3.451719
  H       8.300579     31.345059      2.112502
  C       8.910868     28.499591      3.284829
  H       9.341716     28.501987      2.253565
  H       9.124643     27.489745      3.691094
  H      14.043346     30.992342      9.434269
  H      11.948972     31.264441      8.122089
  H      13.615399     28.825441      4.951728
324
Coordinates from ORCA-job input E -9763.439610679576
  C      -2.334734      9.105947      2.339576
  C      -3.619388      9.220076      2.911566
  C      -4.295301      8.094559      3.394009
  C      -3.704164      6.818385      3.325479
  C      -2.406908      6.705039      2.786345
  C      -1.732876      7.830604      2.298486
  H      -0.717590      7.725350      1.886427
  H      -1.918025      5.718332      2.756291
  H      -4.102685     10.208414      2.944839
  H      -5.304535      8.203478      3.821282
  C      -4.418393      5.614306      3.861563
  Cl     -4.028364      5.336351      5.621394
  H      -4.122517      4.689280      3.331829
  H      -5.517210      5.728135      3.802663
  C      -0.822579     11.635143     -0.065723
  C      -0.589234     12.734014      0.779401
  C      -1.366335     10.425354      0.396070
  C      -0.867538     12.611483      2.155408
  C      -1.666947     10.312460      1.780902
  H      -0.605600     11.740445     -1.141990
  C      -1.397484     11.400690      2.630872
  H      -1.619138     11.294979      3.705383
  C      -1.790278      9.359612     -0.606063
  C      -3.306622      9.345903     -0.710314
  H      -1.426890      8.353544     -0.321834
  H      -1.339159      9.599451     -1.591237
  C      -4.085370      8.238715     -0.329548
  C      -5.477348      8.354289     -0.250396
  C      -6.137507      9.575950     -0.516227
  C      -5.365387     10.679150     -0.965239
  C      -3.972634     10.526650     -1.069621
  H      -3.596400      7.298007     -0.033513
  H      -6.073558      7.496493      0.096863
  H      -3.374910     11.399928     -1.375707
  C      -7.601889      9.660789     -0.271514
  C      -8.485646      8.726923     -0.853917
  C      -9.859801      8.775131     -0.591563
  C     -10.397232      9.759215      0.260066
  C      -8.144130     10.638835      0.593839
  C      -9.517659     10.685944      0.854245
  H      -8.083108      7.961327     -1.534705
  H     -10.531457      8.037089     -1.058163
  H      -7.471823     11.358410      1.086289
  H      -9.916391     11.447910      1.542554
  C     -11.863529      9.789179      0.568382
  Cl    -12.248758      8.816785      2.063221
  H     -12.465645      9.350217     -0.249151
  H     -12.222826     10.815820      0.770316
  C      -0.635421     13.780592      3.084391
  C       0.409390     14.754129      2.596832
  H      -0.382447     13.418682      4.102597
  H      -1.591520     14.346391      3.202912
  C      -0.119851     14.055701      0.224130
  C       0.651337     14.896243      1.214130
  H      -1.022389     14.631846     -0.091162
  H       0.473877     13.902951     -0.700606
  C       1.125463     15.565374      3.496095
  C       2.034570     16.525720      3.041858
  C       1.568842     15.859404      0.768169
  C       2.259150     16.707090      1.658358
  H       1.716659     15.985603     -0.316172
  H       0.961333     15.440809      4.578556
  H       2.594043     17.134288      3.768347
  C       3.119852     17.797709      1.142165
  C       3.817954     17.681872     -0.080983
  C       4.514363     18.769142     -0.621756
  C       4.547780     20.015969      0.033977
  C       3.885192     20.120639      1.273249
  H       3.818237     16.720607     -0.616372
  H       5.042369     18.650703     -1.581593
  C       3.193187     19.035174      1.818338
  H       3.856933     21.089071      1.794909
  H       2.645227     19.173507      2.761845
  C      -5.945228     12.038051     -1.312460
  C      -5.272550     13.180009     -0.567295
  H      -7.039120     12.054287     -1.130826
  H      -5.826577     12.214957     -2.403694
  C      -4.719909     12.991951      0.715954
  C      -4.035639     14.020751      1.369544
  C      -5.142840     14.455471     -1.150938
  C      -4.471045     15.493792     -0.491068
  C      -3.887674     15.296454      0.780743
  H      -4.772673     12.000117      1.189616
  H      -3.564470     13.811759      2.340573
  H      -5.566377     14.637609     -2.152033
  H      -4.388412     16.480152     -0.974159
  C      -3.087644     16.360243      1.442332
  C      -2.172424     17.106430      0.667013
  C      -1.345496     18.095953      1.215602
  C      -3.211123     16.672199      2.824606
  C      -2.324938     17.612861      3.378827
  C      -1.381865     18.309276      2.610535
  H      -2.104139     16.897517     -0.412893
  H      -2.417528     17.856302      4.450509
  C      -4.416065     16.260096      3.661501
  C      -5.411358     17.408195      3.612462
  H      -4.114815     16.064256      4.710278
  H      -4.885025     15.337807      3.271640
  C      -5.700893     18.206931      4.729800
  C      -6.479419     19.366562      4.588046
  C      -6.984202     19.764565      3.335913
  C      -6.719905     18.947348      2.200977
  C      -5.955160     17.785745      2.369983
  H      -5.290459     17.940276      5.716904
  H      -6.686692     19.996694      5.466935
  H      -5.722322     17.182384      1.479476
  C      -7.668965     21.079817      3.187378
  C      -9.007587     21.195348      2.767278
  C      -9.573677     22.454750      2.519208
  C      -8.821254     23.630779      2.692858
  C      -7.493135     23.518271      3.150015
  C      -6.929816     22.265374      3.397756
  H      -9.608689     20.285766      2.615490
  H      -5.879359     22.187532      3.715217
  H      -6.885881     24.428112      3.274292
  H     -10.617581     22.524080      2.173401
  C      -9.418753     24.978395      2.403124
  Cl     -8.474463     25.905441      1.148634
  H      -9.426434     25.629315      3.299744
  H     -10.454171     24.890865      2.023744
  C      -7.122417     19.363680      0.798095
  C      -6.580640     20.727678      0.409544
  H      -8.226541     19.378412      0.687123
  H      -6.755663     18.589906      0.089508
  C      -5.256379     21.104275      0.714252
  C      -4.806254     22.408282      0.470062
  C      -5.663521     23.371447     -0.104758
  C      -7.417178     21.676227     -0.203879
  C      -6.968578     22.973837     -0.464318
  H      -4.578511     20.375534      1.186977
  H      -3.772992     22.687324      0.731004
  H      -8.460152     21.406735     -0.433320
  H      -7.660912     23.720589     -0.879591
  C      -5.271514     24.790760     -0.276072
  C      -4.740048     25.528721      0.799420
  C      -4.509002     26.911912      0.703734
  C      -5.516295     25.466494     -1.490933
  C      -5.242216     26.831641     -1.610413
  C      -4.756165     27.573744     -0.518380
  H      -4.563008     25.018248      1.760043
  H      -5.915895     24.905536     -2.349275
  H      -5.422050     27.342633     -2.570155
  C      -4.092632     27.709912      1.919915
  C      -3.351494     28.986852      1.597506
  C      -3.549181     29.622269      0.353923
  C      -4.551065     29.066085     -0.628546
  H      -5.531201     29.572253     -0.450750
  H      -4.269495     29.341228     -1.666299
  H      -3.491824     27.080945      2.609715
  H      -5.017586     27.967460      2.491194
  C      -2.485581     29.579880      2.531615
  C      -2.833147     30.795413      0.071511
  C      -1.963413     31.389641      1.005470
  C      -1.801451     30.781987      2.279378
  H      -2.339118     29.082437      3.505285
  H      -2.968173     31.286042     -0.906390
  C      -1.189733     32.594426      0.598633
  C      -0.283130     32.505613     -0.479877
  C       0.513290     33.597450     -0.841071
  C      -1.310204     33.830575      1.268574
  C      -0.510683     34.921973      0.908811
  C       0.422576     34.816190     -0.140938
  H      -0.180115     31.547910     -1.012061
  H       1.237303     33.496996     -1.665125
  H      -2.043617     33.935519      2.082506
  H      -0.605823     35.873222      1.456029
  C       1.353772     35.946508     -0.455918
  Cl      2.918576     35.767646      0.468381
  H       0.932778     36.927281     -0.165605
  H       1.631499     35.972783     -1.526420
  C      -0.858449     31.332820      3.339852
  C      -0.422207     18.931764      0.357940
  C      -0.420223     19.292031      3.228777
  C      -0.127628     20.471762      2.331120
  H       0.532713     18.745730      3.428271
  H      -0.785501     19.633329      4.218650
  C      -0.166018     20.307685      0.931164
  H      -0.814787     19.001969     -0.677046
  H       0.560755     18.411558      0.273836
  C       0.108378     21.415946      0.110710
  C       0.213699     21.725600      2.859163
  C       0.532104     22.825751      2.040921
  C       0.470426     22.673578      0.628353
  H       0.078329     21.284248     -0.983860
  H       0.242691     21.859780      3.952750
  C       0.986280     24.087678      2.684945
  C       2.114707     24.080411      3.531702
  C       0.330482     25.317875      2.476164
  C       0.795903     26.495749      3.074313
  C       1.922108     26.488706      3.923449
  C       2.573071     25.257550      4.137150
  H       3.463705     25.221717      4.785232
  H       2.658605     23.136488      3.689828
  H      -0.568234     25.353934      1.840305
  H       0.267228     27.439544      2.874985
  C       2.395458     27.744918      4.650054
  C       0.902894     29.613668      3.946345
  C       1.524946     31.360242      2.414592
  C       0.545957     30.769349      3.235763
  H      -1.272137     31.084758      4.338175
  H      -0.808789     32.434912      3.276668
  C       2.181021     29.024950      3.874598
  C       3.179302     29.653373      3.078690
  C       2.806921     30.810492      2.350612
  H       1.294269     32.266667      1.835793
  H       3.559264     31.296838      1.711978
  H       0.155711     29.149080      4.611187
  H       3.456680     27.622037      4.941056
  H       1.824300     27.815651      5.602702
  C       4.618072     29.266205      3.078093
  C       5.110027     27.940833      3.038885
  C       6.489483     27.682054      3.114079
  C       7.427815     28.727782      3.200388
  C       6.949947     30.055849      3.176385
  C       5.573422     30.304694      3.141057
  H       4.412225     27.097128      2.937647
  H       6.841562     26.637809      3.095898
  H       5.226733     31.348205      3.192660
  C       5.246591     21.210495     -0.593427
  C       4.597973     22.530641     -0.223513
  H       5.216293     21.090749     -1.697942
  H       6.321748     21.199983     -0.320652
  C       5.252197     23.582901      0.471862
  C       4.536607     24.776264      0.713299
  C       3.176717     24.894188      0.401431
  C       3.241369     22.683525     -0.550311
  C       2.495841     23.817004     -0.195328
  H       2.725045     21.838408     -1.033829
  H       5.047842     25.603458      1.227731
  H       2.630057     25.806381      0.686193
  C       0.981483     23.757103     -0.315352
  H       0.685059     23.497679     -1.352479
  H       0.544171     24.747169     -0.089952
  C       6.628009     23.429084      1.009003
  C       6.954649     22.296876      1.789552
  C       8.245309     22.104284      2.282567
  C       9.268625     23.037161      2.022051
  C       8.934082     24.195681      1.295994
  C       7.636031     24.391807      0.797063
  H       6.180250     21.548815      2.014968
  H       8.461391     21.197487      2.862159
  H       9.712253     24.948662      1.088745
  H       7.407344     25.291892      0.205321
  C      10.695496     22.757456      2.459727
  C      10.865138     22.498145      3.948523
  H      11.331069     23.622102      2.181503
  H      11.070330     21.900395      1.868152
  C      11.074798     23.616745      4.775818
  C      11.205045     23.513299      6.164949
  C      11.141463     22.240992      6.773387
  C      10.912519     21.121137      5.966229
  C      10.764359     21.218522      4.564297
  C      10.390560     19.991194      3.808903
  H      10.865652     20.123373      6.431204
  H      11.134282     24.613728      4.307888
  C      11.064489     19.553675      2.649688
  C      10.561474     18.493844      1.882750
  C       9.389907     17.815772      2.266635
  C       8.761270     18.192287      3.470526
  C       9.253343     19.258393      4.226315
  H      11.992885     20.054921      2.339049
  H      11.084536     18.192914      0.961101
  H       7.843047     17.673920      3.787966
  H       8.716637     19.578940      5.132274
  C       8.769125     16.769665      1.391455
  Cl      7.218998     17.397429      0.654118
  H       8.479505     15.865029      1.959569
  H       9.430185     16.477706      0.554228
  C      11.339437     22.154015      8.273789
  C      12.406898     23.120983      8.739199
  H      11.576611     21.117430      8.585838
  H      10.375329     22.413109      8.775503
  C      12.471900     24.385074      8.112612
  C      11.449671     24.710793      7.049126
  H      11.757273     25.594174      6.454644
  H      10.490578     24.993046      7.547046
  C      13.350980     22.815601      9.734094
  C      14.350893     23.731684     10.088002
  C      14.455440     24.981654      9.437511
  C      13.489799     25.279848      8.449606
  H      13.544970     26.225585      7.891892
  H      15.064072     23.462179     10.880645
  H      13.309238     21.836799     10.238227
  C      15.550220     25.944847      9.716389
  C      16.736706     25.585219     10.389992
  C      17.763324     26.521324     10.561701
  C      15.453763     27.270440      9.241154
  C      16.489108     28.203275      9.350769
  C      17.672835     27.826180     10.039382
  H      18.680153     26.225457     11.096318
  H      16.877558     24.560906     10.763953
  H      14.530923     27.594569      8.747030
  C      18.808724     28.783088     10.225659
  Cl     18.436096     30.063464     11.481624
  H      19.051777     29.343111      9.302260
  H      19.720314     28.267835     10.579979
  C      16.344795     29.585030      8.726791
  C      15.081217     29.781007      7.921287
  H      17.227378     29.764358      8.072354
  H      16.417168     30.350912      9.527847
  C      14.919257     29.165914      6.660849
  C      13.729997     29.299607      5.932797
  C      12.657069     30.074481      6.429568
  C      12.818933     30.681148      7.694946
  C      14.004015     30.531401      8.426926
  H      15.745321     28.568278      6.242845
  C      11.429658     30.317174      5.628974
  C      10.779814     29.301924      4.890031
  C      10.892539     31.622298      5.582504
  C       9.637320     29.571169      4.112937
  C       9.136947     30.892240      4.060618
  C       9.764423     31.901202      4.808421
  H      11.164341     28.269827      4.941560
  H      11.388939     32.431470      6.138585
  H       9.366304     32.927711      4.769940
  C       7.944334     31.189783      3.188481
  H       7.459070     32.138437      3.493520
  H       8.300690     31.356217      2.142434
  C       8.924958     28.497092      3.305973
  H       9.355757     28.493538      2.274710
  H       9.137684     27.488719      3.716692
  H      14.094578     31.004346      9.417643
  H      11.991589     31.270624      8.118375
  H      13.644079     28.833958      4.938761
324
Coordinates from ORCA-job input E -9763.439702878431
  C      -2.320146      9.094592      2.331348
  C      -3.602687      9.204883      2.908988
  C      -4.274682      8.076837      3.391065
  C      -3.681299      6.801951      3.317027
  C      -2.386038      6.692476      2.772356
  C      -1.716032      7.820551      2.284671
  H      -0.702345      7.718226      1.867960
  H      -1.895473      5.706744      2.737778
  H      -4.087676     10.192254      2.946362
  H      -5.282262      8.182814      3.822958
  C      -4.390878      5.595028      3.853032
  Cl     -3.993900      5.314219      5.610859
  H      -4.094847      4.671813      3.320205
  H      -5.490168      5.706361      3.798570
  C      -0.819965     11.634820     -0.071072
  C      -0.586631     12.732136      0.776369
  C      -1.360805     10.422666      0.388703
  C      -0.860891     12.605093      2.152793
  C      -1.656821     10.304800      1.774032
  H      -0.606621     11.743696     -1.147722
  C      -1.386975     11.391490      2.626301
  H      -1.604197     11.281811      3.701320
  C      -1.785206      9.358516     -0.614980
  C      -3.301953      9.341611     -0.715551
  H      -1.418595      8.352456     -0.334626
  H      -1.337069      9.601902     -1.600673
  C      -4.077289      8.230866     -0.338332
  C      -5.469419      8.342663     -0.255630
  C      -6.133290      9.563640     -0.515006
  C      -5.364866     10.670276     -0.962400
  C      -3.971794     10.521858     -1.069571
  H      -3.585410      7.289673     -0.048710
  H      -6.062682      7.482191      0.089863
  H      -3.377040     11.397406     -1.374996
  C      -7.596940      9.644423     -0.263359
  C      -8.481646      8.710098     -0.843711
  C      -9.854786      8.755049     -0.574856
  C     -10.390357      9.736204      0.281428
  C      -8.137270     10.619394      0.606740
  C      -9.509759     10.663343      0.873515
  H      -8.080905      7.946929     -1.528289
  H     -10.527101      8.016670     -1.039989
  H      -7.464025     11.338992      1.097873
  H      -9.906759     11.423161      1.565204
  C     -11.855652      9.763374      0.595796
  Cl    -12.234545      8.788198      2.090672
  H     -12.460300      9.325016     -0.220202
  H     -12.215650     10.789226      0.800525
  C      -0.632000     13.773613      3.083604
  C       0.408309     14.752573      2.596789
  H      -0.376826     13.410990      4.100981
  H      -1.589994     14.335811      3.203863
  C      -0.121362     14.056540      0.223304
  C       0.647829     14.898651      1.214068
  H      -1.025837     14.630156     -0.091048
  H       0.472521     13.907224     -0.701900
  C       1.120034     15.567140      3.496520
  C       2.023495     16.533350      3.043214
  C       1.560508     15.867397      0.768986
  C       2.247522     16.717602      1.660035
  H       1.706738     15.995635     -0.315277
  H       0.956657     15.440734      4.578880
  H       2.579472     17.144080      3.770399
  C       3.102681     17.814413      1.145944
  C       3.801664     17.704437     -0.077346
  C       4.493581     18.795909     -0.615858
  C       4.520338     20.042284      0.041308
  C       3.856499     20.141764      1.280325
  H       3.807204     16.744046     -0.614237
  H       5.021015     18.681888     -1.576415
  C       3.169708     19.051835      1.823501
  H       3.821872     21.109795      1.802516
  H       2.621469     19.186232      2.767201
  C      -5.948884     12.028199     -1.306199
  C      -5.277023     13.170907     -0.561845
  H      -7.042261     12.041596     -1.121169
  H      -5.834166     12.206504     -2.397619
  C      -4.722496     12.983198      0.720744
  C      -4.039102     14.012932      1.373820
  C      -5.148687     14.446284     -1.145802
  C      -4.477882     15.485532     -0.486345
  C      -3.894490     15.289402      0.785515
  H      -4.771695     11.990645      1.193500
  H      -3.567777     13.805066      2.345015
  H      -5.571113     14.627243     -2.147594
  H      -4.398691     16.472561     -0.968690
  C      -3.096160     16.354956      1.446231
  C      -2.185260     17.104850      0.669320
  C      -1.361041     18.097377      1.216456
  C      -3.217493     16.665272      2.829123
  C      -2.333274     17.608529      3.381887
  C      -1.395132     18.309454      2.611693
  H      -2.117449     16.895387     -0.410508
  H      -2.423961     17.850794      4.454009
  C      -4.421138     16.251350      3.667095
  C      -5.414874     17.400858      3.622110
  H      -4.118696     16.052821      4.715029
  H      -4.891455     15.330531      3.275511
  C      -5.698513     18.200214      4.740465
  C      -6.473424     19.362571      4.601257
  C      -6.979931     19.762900      3.350599
  C      -6.722654     18.944246      2.214990
  C      -5.961937     17.779844      2.381651
  H      -5.286805     17.931468      5.726481
  H      -6.674353     19.994219      5.480547
  H      -5.735222     17.174996      1.490567
  C      -7.657599     21.081980      3.203706
  C      -8.997245     21.205633      2.788431
  C      -9.555882     22.468715      2.541442
  C      -8.794821     23.640026      2.710885
  C      -7.465594     23.519102      3.162793
  C      -6.909829     22.262827      3.409930
  H      -9.604941     20.299842      2.640203
  H      -5.858445     22.178361      3.722587
  H      -6.851644     24.425051      3.283734
  H     -10.600563     22.544738      2.199383
  C      -9.384417     24.991695      2.423566
  Cl     -8.440652     25.912010      1.163690
  H      -9.382573     25.642918      3.319993
  H     -10.422508     24.911140      2.049965
  C      -7.125975     19.362380      0.813108
  C      -6.577768     20.723392      0.422359
  H      -8.230243     19.383229      0.704472
  H      -6.765330     18.586306      0.103866
  C      -5.251393     21.095448      0.725073
  C      -4.795925     22.397250      0.476668
  C      -5.649986     23.361406     -0.101442
  C      -7.410585     21.673218     -0.193855
  C      -6.956819     22.967986     -0.458910
  H      -4.576010     20.364828      1.198483
  H      -3.760721     22.673577      0.735401
  H      -8.454478     21.406746     -0.422973
  H      -7.646055     23.715874     -0.877354
  C      -5.252763     24.778323     -0.279050
  C      -4.725937     25.521998      0.794621
  C      -4.491475     26.904120      0.691134
  C      -5.489346     25.446489     -1.499649
  C      -5.210405     26.809798     -1.626986
  C      -4.729192     27.558081     -0.537116
  H      -4.557940     25.017850      1.760303
  H      -5.885226     24.880574     -2.356484
  H      -5.384213     27.314950     -2.590934
  C      -4.081335     27.709068      1.904800
  C      -3.337716     28.983855      1.579058
  C      -3.524180     29.609984      0.329131
  C      -4.519181     29.048822     -0.657234
  H      -5.499432     29.559042     -0.492104
  H      -4.227901     29.314920     -1.694689
  H      -3.484346     27.083902      2.601341
  H      -5.009199     27.969860      2.469876
  C      -2.479242     29.583555      2.515899
  C      -2.803670     30.779517      0.043391
  C      -1.940593     31.379676      0.979534
  C      -1.791357     30.782826      2.260119
  H      -2.341811     29.093602      3.494678
  H      -2.927960     31.260835     -0.940394
  C      -1.157575     32.576999      0.568944
  C      -0.240114     32.472708     -0.498894
  C       0.568432     33.555542     -0.859923
  C      -1.278152     33.820172      1.225750
  C      -0.466412     34.902598      0.866314
  C       0.479246     34.780453     -0.170476
  H      -0.137951     31.509828     -1.021810
  H       1.301831     33.442639     -1.674001
  H      -2.021405     33.937710      2.028953
  H      -0.560963     35.859168      1.404297
  C       1.425353     35.899360     -0.481220
  Cl      2.977746     35.708270      0.461776
  H       1.011667     36.886098     -0.200778
  H       1.715605     35.916980     -1.548571
  C      -0.854726     31.338821      3.323713
  C      -0.444104     18.938450      0.356978
  C      -0.436141     19.295617      3.228155
  C      -0.151012     20.477642      2.330810
  H       0.519670     18.753148      3.423462
  H      -0.799722     19.634040      4.219629
  C      -0.192051     20.314870      0.930737
  H      -0.839982     19.008002     -0.676836
  H       0.540937     18.422713      0.269370
  C       0.075793     21.425300      0.110501
  C       0.188477     21.731739      2.858928
  C       0.500780     22.833601      2.040688
  C       0.435622     22.683546      0.628576
  H       0.042282     21.295005     -0.984143
  H       0.220621     21.864994      3.952545
  C       0.958347     24.094114      2.684513
  C       2.089823     24.083885      3.526959
  C       0.303516     25.325483      2.479577
  C       0.774608     26.502365      3.076358
  C       1.905773     26.492680      3.919575
  C       2.553925     25.259629      4.130507
  H       3.447659     25.221264      4.774189
  H       2.631500     23.138300      3.682995
  H      -0.598631     25.363099      1.847776
  H       0.247691     27.447579      2.879056
  C       2.385804     27.747057      4.645646
  C       0.903449     29.620155      3.937416
  C       1.535430     31.369451      2.413365
  C       0.551057     30.777223      3.227183
  H      -1.272878     31.092084      4.320486
  H      -0.807034     32.440816      3.258430
  C       2.180688     29.029103      3.870650
  C       3.184568     29.657955      3.081062
  C       2.817065     30.817969      2.354844
  H       1.310045     32.278314      1.836356
  H       3.572788     31.305011      1.720778
  H       0.152453     29.155545      4.597926
  H       3.445547     27.617962      4.939302
  H       1.813335     27.821644      5.597209
  C       4.622981     29.267968      3.084223
  C       5.111269     27.941316      3.042012
  C       6.489513     27.677308      3.119296
  C       7.431900     28.720473      3.210799
  C       6.958073     30.050447      3.188547
  C       5.581919     30.303439      3.151407
  H       4.411211     27.100379      2.934084
  H       6.836366     26.630653      3.098144
  H       5.238703     31.348008      3.204282
  C       5.215006     21.240488     -0.584471
  C       4.561802     22.559268     -0.216040
  H       5.186488     21.120725     -1.688995
  H       6.290032     21.234155     -0.310965
  C       5.212649     23.615210      0.477420
  C       4.492766     24.807234      0.716677
  C       3.132190     24.918891      0.403004
  C       3.205501     22.707233     -0.545968
  C       2.455595     23.838756     -0.194976
  H       2.693836     21.860985     -1.032542
  H       4.999994     25.636955      1.233719
  H       2.581988     25.830060      0.683591
  C       0.941045     23.771072     -0.314206
  H       0.645030     23.511279     -1.351332
  H       0.498689     24.758655     -0.087409
  C       6.588801     23.466309      1.014690
  C       6.922718     22.329767      1.785660
  C       8.213706     22.142283      2.279258
  C       9.230679     23.084854      2.029804
  C       8.888876     24.247571      1.313590
  C       7.590313     24.438428      0.813550
  H       6.153873     21.574027      2.004124
  H       8.434930     21.232345      2.851213
  H       9.661741     25.008362      1.115083
  H       7.356515     25.341959      0.229117
  C      10.658302     22.811708      2.469368
  C      10.827015     22.542121      3.956076
  H      11.288885     23.682453      2.198953
  H      11.040288     21.961037      1.872841
  C      11.040055     23.654477      4.791097
  C      11.174711     23.540618      6.178885
  C      11.109677     22.263614      6.777761
  C      10.878622     21.149854      5.962709
  C      10.727769     21.257953      4.561880
  C      10.365363     20.033442      3.796235
  H      10.828567     20.148920      6.420492
  H      11.104684     24.654258      4.329775
  C      11.060560     19.597776      2.649108
  C      10.570431     18.540670      1.869893
  C       9.386180     17.869109      2.224932
  C       8.734494     18.244053      3.417110
  C       9.216680     19.304065      4.187696
  H      11.996186     20.097503      2.358099
  H      11.110062     18.241734      0.957186
  H       7.806227     17.730384      3.712046
  H       8.663277     19.623841      5.083837
  C       8.788735     16.816802      1.339812
  Cl      7.261967     17.436733      0.549876
  H       8.483530     15.916055      1.906278
  H       9.474985     16.517285      0.525857
  C      11.315112     22.164162      8.276145
  C      12.389653     23.122835      8.741810
  H      11.549282     21.124198      8.579072
  H      10.354991     22.424124      8.785021
  C      12.454708     24.392384      8.125729
  C      11.425216     24.730517      7.072364
  H      11.728869     25.620425      6.484311
  H      10.469843     25.007670      7.580127
  C      13.340441     22.804256      9.726012
  C      14.347355     23.712424     10.079653
  C      14.452798     24.967297      9.439084
  C      13.479722     25.279204      8.462300
  H      13.534554     26.229354      7.912108
  H      15.066604     23.431719     10.862831
  H      13.297974     21.821317     10.221976
  C      15.554125     25.922984      9.718068
  C      16.742004     25.556004     10.386113
  C      17.772742     26.487850     10.557214
  C      15.461448     27.250538      9.248402
  C      16.500154     28.179125      9.357468
  C      17.685225     27.795180     10.040035
  H      18.690444     26.186652     11.087342
  H      16.880675     24.529910     10.755894
  H      14.537874     27.580567      8.759688
  C      18.825071     28.747376     10.226012
  Cl     18.460741     30.025782     11.486338
  H      19.067776     29.308916      9.303407
  H      19.735742     28.227795     10.576401
  C      16.356264     29.563471      8.739373
  C      15.093152     29.761777      7.933437
  H      17.239580     29.746499      8.086921
  H      16.427333     30.325907      9.543868
  C      14.930017     29.146011      6.673371
  C      13.740222     29.279486      5.946008
  C      12.667574     30.054452      6.443280
  C      12.831014     30.662830      7.707694
  C      14.016660     30.513258      8.439000
  H      15.755538     28.547674      6.255280
  C      11.439816     30.298327      5.643233
  C      10.786744     29.284352      4.904739
  C      10.906690     31.605276      5.596674
  C       9.644525     29.557680      4.127394
  C       9.148517     30.881333      4.075411
  C       9.779347     31.888107      4.822993
  H      11.168798     28.250578      4.956520
  H      11.406985     32.413045      6.151320
  H       9.384188     32.915792      4.785177
  C       7.956452     31.181968      3.202894
  H       7.473863     32.131841      3.508385
  H       8.313802     31.348510      2.157207
  C       8.928717     28.486041      3.318660
  H       9.360763     28.482144      2.287898
  H       9.138192     27.476570      3.728473
  H      14.108191     30.987232      9.429142
  H      12.003741     31.252086      8.131580
  H      13.653047     28.812430      4.952728
324
Coordinates from ORCA-job input E -9763.439810390144
  C      -2.308757      9.079243      2.298191
  C      -3.588241      9.183421      2.883817
  C      -4.254573      8.051275      3.364112
  C      -3.658408      6.778272      3.280127
  C      -2.366151      6.674790      2.727267
  C      -1.701810      7.807001      2.241408
  H      -0.690169      7.709526      1.818654
  H      -1.873551      5.690398      2.684527
  H      -4.075261     10.169414      2.929218
  H      -5.259848      8.152470      3.802468
  C      -4.361567      5.566977      3.814761
  Cl     -3.952802      5.278700      5.568642
  H      -4.066668      4.647073      3.275597
  H      -5.461454      5.675835      3.767807
  C      -0.824943     11.636246     -0.097545
  C      -0.589923     12.729724      0.754364
  C      -1.361990     10.420813      0.358247
  C      -0.859442     12.595595      2.131087
  C      -1.651450     10.294797      1.744247
  H      -0.615283     11.750480     -1.174371
  C      -1.380832     11.378248      2.600729
  H      -1.593875     11.262891      3.675990
  C      -1.790243      9.361862     -0.649241
  C      -3.307448      9.344046     -0.742232
  H      -1.421027      8.354673     -0.376495
  H      -1.347290      9.611196     -1.635811
  C      -4.079910      8.230966     -0.366109
  C      -5.471712      8.341124     -0.275946
  C      -6.137935      9.562680     -0.526312
  C      -5.372780     10.671874     -0.973111
  C      -3.980129     10.525256     -1.087805
  H      -3.585777      7.288712     -0.083871
  H      -6.062442      7.478638      0.068851
  H      -3.387784     11.402642     -1.392656
  C      -7.600383      9.641073     -0.267174
  C      -8.487209      8.708040     -0.846491
  C      -9.858969      8.750640     -0.570446
  C     -10.391101      9.728197      0.292131
  C      -8.137134     10.611983      0.609598
  C      -9.508305     10.653609      0.883521
  H      -8.089237      7.947621     -1.535738
  H     -10.533052      8.013818     -1.035490
  H      -7.462013     11.329861      1.100649
  H      -9.902511     11.410703      1.579783
  C     -11.854908      9.753197      0.613682
  Cl    -12.226709      8.767492      2.103454
  H     -12.463508      9.320642     -0.202484
  H     -12.213793     10.777658      0.827125
  C      -0.631157     13.761282      3.065883
  C       0.406562     14.744320      2.580972
  H      -0.374648     13.395891      4.081886
  H      -1.589794     14.321868      3.188318
  C      -0.128675     14.057666      0.205972
  C       0.641751     14.897088      1.198239
  H      -1.035285     14.630494     -0.103855
  H       0.463122     13.913588     -0.721408
  C       1.117689     15.558073      3.481953
  C       2.017468     16.528570      3.030202
  C       1.551451     15.869476      0.754796
  C       2.238851     16.718153      1.647234
  H       1.694013     16.002337     -0.329354
  H       0.957700     15.426695      4.564225
  H       2.571914     17.139163      3.758572
  C       3.092220     17.818069      1.135731
  C       3.790151     17.712452     -0.088618
  C       4.479721     18.806304     -0.625367
  C       4.505587     20.051067      0.034628
  C       3.843104     20.146444      1.274832
  H       3.796946     16.753414     -0.627863
  H       5.004320     18.695962     -1.587843
  C       3.158700     19.054102      1.816242
  H       3.808075     21.113129      1.799628
  H       2.610505     19.185981      2.760303
  C      -5.959854     12.030345     -1.309207
  C      -5.286605     13.171109     -0.563236
  H      -7.052575     12.041520     -1.120003
  H      -5.849559     12.212957     -2.400350
  C      -4.726401     12.979284      0.716276
  C      -4.041933     14.007594      1.370542
  C      -5.162029     14.448720     -1.143115
  C      -4.489772     15.486345     -0.482609
  C      -3.901567     15.286492      0.786403
  H      -4.771737     11.984736      1.185244
  H      -3.567511     13.796998      2.339679
  H      -5.587545     14.632490     -2.143093
  H      -4.414822     16.475603     -0.960989
  C      -3.101832     16.351049      1.446869
  C      -2.195977     17.104743      0.667797
  C      -1.372852     18.099141      1.213138
  C      -3.217883     16.657907      2.830909
  C      -2.334456     17.603042      3.381710
  C      -1.402243     18.308996      2.608838
  H      -2.132180     16.897327     -0.412660
  H      -2.420846     17.842585      4.454804
  C      -4.417430     16.238670      3.672346
  C      -5.411593     17.388137      3.635026
  H      -4.110868     16.036449      4.718403
  H      -4.888182     15.319003      3.278664
  C      -5.685250     18.188741      4.754976
  C      -6.456614     19.354016      4.620392
  C      -6.969225     19.756524      3.372808
  C      -6.722617     18.936341      2.235832
  C      -5.965630     17.768738      2.398099
  H      -5.267426     17.919322      5.738237
  H      -6.648961     19.986893      5.500722
  H      -5.746251     17.163255      1.505475
  C      -7.639628     21.079981      3.230546
  C      -8.980851     21.213234      2.822846
  C      -9.532412     22.480395      2.580725
  C      -8.762564     23.646395      2.747426
  C      -7.431525     23.515784      3.191151
  C      -6.882808     22.255592      3.433652
  H      -9.595397     20.311680      2.677143
  H      -5.830060     22.163853      3.739592
  H      -6.810901     24.417454      3.310142
  H     -10.578450     22.563949      2.244626
  C      -9.343660     25.002783      2.465753
  Cl     -8.407795     25.912830      1.192105
  H      -9.323639     25.655105      3.361088
  H     -10.387094     24.931390      2.105449
  C      -7.131786     19.356256      0.836222
  C      -6.580348     20.714996      0.442196
  H      -8.236559     19.381805      0.733495
  H      -6.778559     18.578589      0.124978
  C      -5.252097     21.083815      0.740252
  C      -4.793627     22.383795      0.487512
  C      -5.646530     23.348714     -0.090918
  C      -7.412228     21.665673     -0.173990
  C      -6.955453     22.958402     -0.443921
  H      -4.577113     20.351797      1.212079
  H      -3.757272     22.658303      0.743140
  H      -8.457138     21.401001     -0.400833
  H      -7.643410     23.707090     -0.863089
  C      -5.245039     24.763633     -0.276253
  C      -4.723266     25.513409      0.795505
  C      -4.484306     26.894151      0.683760
  C      -5.471771     25.423547     -1.503175
  C      -5.186692     26.784867     -1.638777
  C      -4.710721     27.539722     -0.551023
  H      -4.563165     25.015460      1.765747
  H      -5.862829     24.852267     -2.358682
  H      -5.352888     27.283622     -2.607397
  C      -4.082287     27.706756      1.895032
  C      -3.333314     28.977651      1.566582
  C      -3.504422     29.593558      0.309343
  C      -4.492408     29.028470     -0.681897
  H      -5.471668     29.545145     -0.531859
  H      -4.189081     29.283763     -1.718658
  H      -3.491786     27.085370      2.600560
  H      -5.014286     27.972639      2.450871
  C      -2.483687     29.583089      2.507711
  C      -2.773950     30.756348      0.020122
  C      -1.917277     31.360144      0.959764
  C      -1.787389     30.776546      2.248476
  H      -2.360049     29.102161      3.492776
  H      -2.882538     31.227606     -0.970426
  C      -1.115801     32.543568      0.545659
  C      -0.187387     32.414827     -0.509913
  C       0.645534     33.479767     -0.867972
  C      -1.222774     33.793606      1.191551
  C      -0.386063     34.857931      0.835685
  C       0.571357     34.710236     -0.186887
  H      -0.095186     31.445920     -1.023429
  H       1.388380     33.346972     -1.670385
  H      -1.972862     33.930084      1.985366
  H      -0.469219     35.819795      1.366069
  C       1.546456     35.806183     -0.488353
  Cl      3.080149     35.580995      0.477712
  H       1.152015     36.803267     -0.216904
  H       1.852332     35.813207     -1.551451
  C      -0.859886     31.337550      3.317619
  C      -0.461201     18.943353      0.351193
  C      -0.444312     19.297587      3.223211
  C      -0.164160     20.480781      2.325684
  H       0.513324     18.757434      3.416233
  H      -0.806489     19.634801      4.215620
  C      -0.209733     20.319547      0.925616
  H      -0.861336     19.013186     -0.680977
  H       0.524449     18.429644      0.259055
  C       0.055526     21.430982      0.105791
  C       0.174272     21.735063      2.853972
  C       0.483101     22.838314      2.036200
  C       0.415557     22.689065      0.624170
  H       0.020951     21.301355     -0.988895
  H       0.207680     21.867697      3.947630
  C       0.942063     24.097279      2.681891
  C       2.076559     24.085370      3.519985
  C       0.286359     25.329032      2.481572
  C       0.759133     26.504604      3.079473
  C       1.893372     26.493099      3.918693
  C       2.542885     25.259893      4.123986
  H       3.438724     25.220186      4.764660
  H       2.619268     23.139592      3.671077
  H      -0.616990     25.367858      1.851692
  H       0.230482     27.449905      2.886946
  C       2.375051     27.745149      4.647358
  C       0.896953     29.620978      3.937802
  C       1.539120     31.379678      2.428745
  C       0.548568     30.781156      3.230620
  H      -1.283969     31.089807      4.311613
  H      -0.816162     32.439756      3.252162
  C       2.174647     29.030569      3.876710
  C       3.183571     29.663630      3.097185
  C       2.821122     30.828410      2.375988
  H       1.319192     32.293330      1.857202
  H       3.581059     31.319740      1.750351
  H       0.141454     29.152523      4.590387
  H       3.433969     27.612674      4.942220
  H       1.801771     27.818767      5.598501
  C       4.621183     29.271157      3.104864
  C       5.107391     27.943638      3.064924
  C       6.485141     27.677565      3.142780
  C       7.429481     28.718772      3.232204
  C       6.957765     30.049199      3.207640
  C       5.582099     30.304637      3.171273
  H       4.405929     27.103587      2.959115
  H       6.830204     26.630833      3.122775
  H       5.241271     31.350103      3.221342
  C       5.197232     21.252094     -0.589141
  C       4.540111     22.569159     -0.219897
  H       5.170941     21.133349     -1.693807
  H       6.271836     21.248444     -0.314301
  C       5.189619     23.626038      0.472903
  C       4.468331     24.816717      0.712217
  C       3.108058     24.927549      0.398671
  C       3.183777     22.715924     -0.550713
  C       2.432662     23.847060     -0.200205
  H       2.673443     21.869826     -1.039035
  H       4.973905     25.644678      1.232534
  H       2.557425     25.838362      0.679971
  C       0.918313     23.777553     -0.318570
  H       0.621853     23.517610     -1.355520
  H       0.474503     24.764420     -0.091035
  C       6.564047     23.479602      1.014344
  C       6.898558     22.342746      1.783762
  C       8.186950     22.160215      2.284760
  C       9.200716     23.109146      2.047671
  C       8.858490     24.271919      1.331659
  C       7.562396     24.457345      0.822893
  H       6.132368     21.582954      1.996993
  H       8.407394     21.251336      2.857099
  H       9.628173     25.038406      1.142896
  H       7.328405     25.361255      0.239180
  C      10.625336     22.841803      2.500605
  C      10.786098     22.578078      3.989479
  H      11.256145     23.712520      2.230735
  H      11.014319     21.988952      1.910921
  C      11.003278     23.691523      4.821691
  C      11.138366     23.580068      6.209493
  C      11.069969     22.304575      6.811481
  C      10.835356     21.189533      5.999106
  C      10.685348     21.295419      4.597954
  C      10.321201     20.070791      3.833373
  H      10.782273     20.189603      6.458854
  H      11.074862     24.689687      4.357853
  C      11.012102     19.637287      2.683368
  C      10.518575     18.581287      1.904153
  C       9.335040     17.910008      2.262041
  C       8.689480     18.281336      3.458870
  C       9.176457     19.338238      4.230565
  H      11.944323     20.140618      2.387103
  H      11.055148     18.283251      0.989326
  H       7.762476     17.767021      3.756523
  H       8.631393     19.651745      5.134092
  C       8.735038     16.857909      1.377256
  Cl      7.195841     17.466427      0.603410
  H       8.444437     15.951056      1.941911
  H       9.416851     16.567530      0.556288
  C      11.276536     22.209011      8.310026
  C      12.359467     23.161548      8.768805
  H      11.503211     21.168573      8.616835
  H      10.319368     22.479022      8.819312
  C      12.430091     24.428853      8.148546
  C      11.396917     24.770252      7.099942
  H      11.701112     25.658098      6.509425
  H      10.445051     25.051550      7.611921
  C      13.314265     22.838458      9.747476
  C      14.331038     23.739644     10.090832
  C      14.442149     24.991593      9.445504
  C      13.464213     25.308559      8.475246
  H      13.522165     26.256656      7.921816
  H      15.053989     23.455165     10.869233
  H      13.267727     21.857185     10.246367
  C      15.555616     25.937042      9.710649
  C      16.745091     25.561143     10.370475
  C      17.787046     26.482795     10.528051
  C      15.472919     27.263338      9.235888
  C      16.522089     28.181655      9.331748
  C      17.709072     27.788481     10.005420
  H      18.705904     26.174493     11.052055
  H      16.876315     24.535508     10.744205
  H      14.548288     27.601443      8.754896
  C      18.860662     28.729210     10.176585
  Cl     18.521844     30.017164     11.434194
  H      19.100800     29.283820      9.249096
  H      19.768994     28.201488     10.520853
  C      16.386354     29.564117      8.707990
  C      15.120807     29.766783      7.907397
  H      17.268033     29.737708      8.050762
  H      16.466784     30.329876      9.508494
  C      14.947796     29.144585      6.651851
  C      13.753969     29.277659      5.931419
  C      12.686969     30.058696      6.431199
  C      12.860559     30.674399      7.690703
  C      14.050505     30.525546      8.415081
  H      15.768446     28.540550      6.232350
  C      11.453983     30.299539      5.638582
  C      10.794337     29.283117      4.909417
  C      10.922934     31.607102      5.589239
  C       9.647840     29.554671      4.137761
  C       9.153729     30.878573      4.083388
  C       9.791002     31.887829      4.822082
  H      11.175129     28.249235      4.963563
  H      11.428956     32.416843      6.135720
  H       9.396756     32.915798      4.782402
  C       7.957338     31.179236      3.217018
  H       7.476984     32.129630      3.524475
  H       8.309459     31.345395      2.169501
  C       8.926046     28.480978      3.337310
  H       9.355164     28.469823      2.305348
  H       9.133707     27.473100      3.752101
  H      14.150017     31.005034      9.401794
  H      12.037861     31.268733      8.116366
  H      13.659114     28.805689      4.941175
324
Coordinates from ORCA-job input E -9763.439973371851
  C      -2.287657      9.071178      2.255121
  C      -3.561560      9.164151      2.854884
  C      -4.216278      8.024979      3.334566
  C      -3.613905      6.755946      3.235273
  C      -2.327395      6.663523      2.667473
  C      -1.674516      7.802811      2.182752
  H      -0.666880      7.714265      1.748760
  H      -1.829834      5.682261      2.612779
  H      -4.053165     10.147068      2.912880
  H      -5.217241      8.117343      3.784499
  C      -4.304325      5.536961      3.769142
  Cl     -3.874494      5.239093      5.516316
  H      -4.010370      4.622459      3.220381
  H      -5.405234      5.639871      3.735439
  C      -0.832586     11.650704     -0.134430
  C      -0.596940     12.739982      0.722669
  C      -1.362244     10.430431      0.317149
  C      -0.858570     12.596740      2.100032
  C      -1.642300     10.294557      1.704038
  H      -0.629645     11.772135     -1.211748
  C      -1.371341     11.374147      2.565403
  H      -1.577021     11.251080      3.641234
  C      -1.790867      9.374662     -0.693604
  C      -3.308391      9.351395     -0.779369
  H      -1.416208      8.367694     -0.427710
  H      -1.353624      9.630480     -1.681077
  C      -4.074870      8.234443     -0.402541
  C      -5.466547      8.339411     -0.304081
  C      -6.138492      9.559433     -0.545956
  C      -5.379651     10.672823     -0.993133
  C      -3.987212     10.531509     -1.116508
  H      -3.575848      7.293070     -0.126102
  H      -6.052366      7.473624      0.040655
  H      -3.399729     11.412410     -1.420537
  C      -7.599676      9.631831     -0.278113
  C      -8.487316      8.697471     -0.854161
  C      -9.857374      8.734869     -0.568998
  C     -10.387116      9.708531      0.299564
  C      -8.133910     10.598433      0.604867
  C      -9.503394     10.634928      0.887815
  H      -8.091518      7.940065     -1.547945
  H     -10.532121      7.997423     -1.032025
  H      -7.457901     11.316926      1.093746
  H      -9.895435     11.389098      1.588427
  C     -11.848920      9.728212      0.630801
  Cl    -12.209844      8.730928      2.115636
  H     -12.461970      9.300546     -0.184600
  H     -12.208264     10.750466      0.853708
  C      -0.631411     13.759056      3.039561
  C       0.401056     14.748504      2.555921
  H      -0.371962     13.390745      4.053689
  H      -1.591378     14.316494      3.165263
  C      -0.143088     14.072725      0.179755
  C       0.629235     14.909511      1.172953
  H      -1.053460     14.642996     -0.123108
  H       0.445019     13.936022     -0.751089
  C       1.112658     15.560960      3.457631
  C       2.006620     16.537264      3.006837
  C       1.533745     15.887166      0.730616
  C       2.223186     16.733402      1.623986
  H       1.670939     16.024868     -0.353576
  H       0.958653     15.423022      4.539939
  H       2.561664     17.145915      3.736285
  C       3.073964     17.836653      1.114863
  C       3.768698     17.735056     -0.111614
  C       4.456642     18.830280     -0.647235
  C       4.484515     20.073050      0.015856
  C       3.825408     20.165000      1.258465
  H       3.773860     16.777890     -0.654152
  H       4.977627     18.722769     -1.611900
  C       3.142600     19.071003      1.798640
  H       3.791831     21.130411      1.785970
  H       2.596522     19.200728      2.744303
  C      -5.972742     12.030551     -1.320660
  C      -5.298657     13.170185     -0.574118
  H      -7.064500     12.037827     -1.125609
  H      -5.868880     12.217512     -2.411672
  C      -4.732393     12.975411      0.702216
  C      -4.048234     14.003304      1.357370
  C      -5.181224     14.450280     -1.149384
  C      -4.509080     15.487403     -0.488196
  C      -3.913260     15.284566      0.776994
  H      -4.774978     11.979759      1.168863
  H      -3.568211     13.790110      2.323185
  H      -5.613946     14.637203     -2.145659
  H      -4.438197     16.477636     -0.964412
  C      -3.112179     16.348797      1.436792
  C      -2.214612     17.109487      0.654776
  C      -1.392546     18.105948      1.198166
  C      -3.218988     16.649461      2.823044
  C      -2.336044     17.596513      3.371293
  C      -1.413294     18.310598      2.594816
  H      -2.158723     16.907724     -0.427147
  H      -2.414792     17.830513      4.446181
  C      -4.409168     16.219334      3.672704
  C      -5.404732     17.367908      3.651694
  H      -4.092840     16.010055      4.714494
  H      -4.880987     15.301711      3.275795
  C      -5.661978     18.167977      4.776000
  C      -6.429781     19.336838      4.651902
  C      -6.953878     19.744148      3.410488
  C      -6.724403     18.924386      2.269946
  C      -5.971901     17.752513      2.422067
  H      -5.233098     17.896011      5.753769
  H      -6.609371     19.969188      5.535284
  H      -5.764790     17.147783      1.525813
  C      -7.618952     21.071198      3.277834
  C      -8.961611     21.212699      2.878048
  C      -9.508830     22.483328      2.645159
  C      -8.733290     23.645040      2.814750
  C      -7.400519     23.506036      3.250348
  C      -6.855816     22.242319      3.482838
  H      -9.580546     20.314515      2.730518
  H      -5.802180     22.144700      3.783794
  H      -6.775703     24.404430      3.371596
  H     -10.556429     22.573334      2.315753
  C      -9.306988     25.005545      2.539746
  Cl     -8.380141     25.905893      1.251926
  H      -9.268441     25.658390      3.433927
  H     -10.355512     24.942857      2.192981
  C      -7.146485     19.348667      0.875768
  C      -6.592479     20.704658      0.476206
  H      -8.252188     19.380980      0.785197
  H      -6.806450     18.569599      0.159629
  C      -5.260146     21.068257      0.760876
  C      -4.799293     22.365953      0.503013
  C      -5.653624     23.333736     -0.067509
  C      -7.427443     21.659148     -0.130131
  C      -6.968069     22.949804     -0.405894
  H      -4.583213     20.334229      1.226376
  H      -3.760236     22.636822      0.748573
  H      -8.475894     21.398801     -0.345448
  H      -7.656477     23.701056     -0.819783
  C      -5.246290     24.745870     -0.262725
  C      -4.729293     25.502628      0.806295
  C      -4.485404     26.881649      0.684658
  C      -5.463272     25.395810     -1.496491
  C      -5.171510     26.754674     -1.641994
  C      -4.699494     27.516869     -0.557675
  H      -4.576259     25.011542      1.781099
  H      -5.852590     24.818714     -2.348884
  H      -5.327579     27.245315     -2.616408
  C      -4.092868     27.704207      1.892444
  C      -3.335753     28.968963      1.559521
  C      -3.488394     29.571285      0.293312
  C      -4.470940     29.002866     -0.701281
  H      -5.448076     29.527487     -0.566116
  H      -4.156106     29.245591     -1.737652
  H      -3.510944     27.087828      2.609641
  H      -5.029895     27.977497      2.436107
  C      -2.494140     29.580346      2.503928
  C      -2.740483     30.721078     -0.003733
  C      -1.887239     31.326989      0.937558
  C      -1.782039     30.762483      2.237105
  H      -2.387141     29.111453      3.496667
  H      -2.831423     31.179250     -1.002257
  C      -1.048437     32.480101      0.514268
  C      -0.109155     32.302422     -0.524350
  C       0.772556     33.328171     -0.878278
  C      -1.120371     33.742167      1.140955
  C      -0.234366     34.767202      0.789830
  C       0.738102     34.566775     -0.209232
  H      -0.045286     31.323834     -1.023480
  H       1.526095     33.155259     -1.662804
  H      -1.879980     33.918560      1.917617
  H      -0.287295     35.737531      1.308502
  C       1.771658     35.611820     -0.493635
  Cl      3.270110     35.308867      0.506830
  H       1.423134     36.628586     -0.232671
  H       2.100800     35.599617     -1.549690
  C      -0.866179     31.330890      3.313055
  C      -0.487844     18.954393      0.333406
  C      -0.456005     19.301663      3.206746
  C      -0.182337     20.487328      2.310268
  H       0.504052     18.764022      3.395013
  H      -0.815343     19.636141      4.201095
  C      -0.234634     20.329221      0.910105
  H      -0.894181     19.026189     -0.696205
  H       0.497963     18.442285      0.233998
  C       0.027351     21.442200      0.091655
  C       0.157588     21.740966      2.839719
  C       0.463557     22.846061      2.022902
  C       0.390148     22.699008      0.610820
  H      -0.010426     21.314500     -1.003121
  H       0.195728     21.871377      3.933470
  C       0.926847     24.102740      2.670113
  C       2.065206     24.087110      3.502590
  C       0.272209     25.336040      2.475322
  C       0.747585     26.508792      3.075634
  C       1.884425     26.493283      3.911229
  C       2.534796     25.259290      4.108613
  H       3.432899     25.216643      4.745906
  H       2.607710     23.140207      3.647423
  H      -0.632280     25.377871      1.848170
  H       0.217794     27.454663      2.888612
  C       2.366682     27.741212      4.645746
  C       0.891752     29.618732      3.936302
  C       1.545831     31.397633      2.456411
  C       0.547024     30.785045      3.237366
  H      -1.296568     31.079251      4.303258
  H      -0.830673     32.433534      3.249344
  C       2.171200     29.031675      3.882273
  C       3.186239     29.674571      3.118723
  C       2.828781     30.848588      2.409890
  H       1.333588     32.320223      1.896756
  H       3.593534     31.350824      1.799044
  H       0.130895     29.142157      4.576571
  H       3.424185     27.605362      4.943590
  H       1.790972     27.811503      5.595671
  C       4.623460     29.280965      3.127855
  C       5.110156     27.953410      3.081762
  C       6.488013     27.687065      3.157926
  C       7.432390     28.727634      3.250711
  C       6.960125     30.057738      3.231576
  C       5.584783     30.313316      3.199163
  H       4.409182     27.113765      2.970269
  H       6.833341     26.640586      3.134874
  H       5.245060     31.358811      3.254147
  C       5.173891     21.275418     -0.607084
  C       4.512391     22.591216     -0.239991
  H       5.151371     21.155741     -1.711703
  H       6.247693     21.275424     -0.329738
  C       5.159630     23.649859      0.451958
  C       4.434976     24.839040      0.689281
  C       3.075268     24.946875      0.374940
  C       3.155083     22.732888     -0.568316
  C       2.401434     23.862403     -0.218219
  H       2.645370     21.882360     -1.049569
  H       4.938626     25.669768      1.206328
  H       2.522230     25.855179      0.659160
  C       0.887398     23.788932     -0.332997
  H       0.588728     23.528038     -1.369078
  H       0.441170     24.774556     -0.104214
  C       6.528518     23.503773      1.006946
  C       6.859346     22.363490      1.772292
  C       8.141976     22.183680      2.288049
  C       9.153348     23.140493      2.075622
  C       8.814865     24.305953      1.361782
  C       7.525234     24.487282      0.835174
  H       6.095771     21.597476      1.971443
  H       8.357720     21.273413      2.858426
  H       9.582186     25.078840      1.190482
  H       7.295709     25.393175      0.252896
  C      10.572207     22.878762      2.550011
  C      10.721910     22.626042      4.042734
  H      11.204763     23.747974      2.279490
  H      10.969849     22.020964      1.972714
  C      10.942477     23.743021      4.869151
  C      11.074169     23.638507      6.257745
  C      10.997520     22.367140      6.867285
  C      10.757691     21.248506      6.061143
  C      10.614359     21.347445      4.658553
  C      10.248025     20.120035      3.899272
  H      10.700467     20.251000      6.525684
  H      11.018841     24.738458      4.400276
  C      10.946040     19.676232      2.758269
  C      10.454955     18.615026      1.983831
  C       9.266787     17.950168      2.338168
  C       8.612111     18.334622      3.526061
  C       9.099531     19.392977      4.295462
  H      11.880646     20.176384      2.463622
  H      11.000208     18.304783      1.078244
  H       7.682882     17.823319      3.821847
  H       8.552128     19.712991      5.195350
  C       8.670492     16.894240      1.454116
  Cl      7.133561     17.489024      0.668565
  H       8.385122     15.986526      2.020337
  H       9.359000     16.603619      0.638740
  C      11.202172     22.281606      8.366911
  C      12.300676     23.222141      8.814222
  H      11.412695     21.240810      8.683441
  H      10.249722     22.572297      8.873662
  C      12.383316     24.484242      8.184937
  C      11.346080     24.830193      7.142021
  H      11.653114     25.713234      6.546995
  H      10.399700     25.119989      7.659204
  C      13.260248     22.891969      9.785677
  C      14.294043     23.780664     10.111565
  C      14.417086     25.026504      9.456315
  C      13.432818     25.351453      8.495227
  H      13.497706     26.294826      7.934536
  H      15.021222     23.490351     10.883818
  H      13.204661     21.914844     10.291660
  C      15.549717     25.955097      9.700412
  C      16.740339     25.565101     10.349501
  C      17.800254     26.469300     10.485527
  C      15.485211     27.278303      9.214263
  C      16.551558     28.179130      9.289144
  C      17.739406     27.771277      9.951994
  H      18.719674     26.149409     11.001497
  H      16.858710     24.540889     10.731281
  H      14.561603     27.628366      8.740114
  C      18.910063     28.692130     10.099671
  Cl     18.611994     29.996923     11.350042
  H      19.147830     29.233988      9.164044
  H      19.813199     28.150785     10.436359
  C      16.431158     29.558421      8.655360
  C      15.162419     29.770064      7.862888
  H      17.310705     29.715911      7.991343
  H      16.526990     30.329220      9.449386
  C      14.976011     29.145147      6.610781
  C      13.776682     29.281129      5.900622
  C      12.717094     30.067180      6.408080
  C      12.904701     30.687095      7.663454
  C      14.100674     30.536271      8.377113
  H      15.790552     28.536696      6.185853
  C      11.476949     30.307803      5.627038
  C      10.810098     29.291535      4.904906
  C      10.945532     31.615305      5.583151
  C       9.656860     29.562494      4.143945
  C       9.161893     30.885696      4.095314
  C       9.805731     31.895280      4.827989
  H      11.191169     28.258262      4.955835
  H      11.456431     32.424807      6.125313
  H       9.410513     32.922991      4.792070
  C       7.958263     31.188403      3.240219
  H       7.478816     32.136475      3.556189
  H       8.301996     31.360982      2.190973
  C       8.929206     28.488935      3.349072
  H       9.353245     28.475711      2.315010
  H       9.137650     27.481249      3.764122
  H      14.211642     31.019473      9.360769
  H      12.088018     31.285607      8.094672
  H      13.670882     28.806518      4.912795
324
Coordinates from ORCA-job input E -9763.440154452737
  C      -2.271303      9.056089      2.183775
  C      -3.540137      9.133875      2.796496
  C      -4.180641      7.985486      3.273399
  C      -3.569103      6.722198      3.157509
  C      -2.287772      6.644792      2.576147
  C      -1.648853      7.793359      2.094926
  H      -0.644697      7.717097      1.650792
  H      -1.782871      5.668106      2.508713
  H      -4.038956     10.112159      2.867796
  H      -5.177607      8.065778      3.734337
  C      -4.244287      5.493451      3.688501
  Cl     -3.793618      5.184742      5.428501
  H      -3.949139      4.585819      3.129092
  H      -5.346244      5.588099      3.667330
  C      -0.847409     11.661694     -0.196418
  C      -0.612352     12.746130      0.666857
  C      -1.367999     10.435570      0.249717
  C      -0.868066     12.592774      2.044310
  C      -1.639642     10.288598      1.637249
  H      -0.649780     11.790930     -1.273821
  C      -1.371643     11.364410      2.504139
  H      -1.571560     11.233105      3.580096
  C      -1.800335      9.385961     -0.765911
  C      -3.318427      9.356415     -0.837292
  H      -1.418537      8.378817     -0.511590
  H      -1.373655      9.651765     -1.755378
  C      -4.076300      8.235473     -0.454712
  C      -5.467418      8.334214     -0.342270
  C      -6.146981      9.551905     -0.574384
  C      -5.397304     10.669575     -1.026190
  C      -4.005686     10.534451     -1.164476
  H      -3.570597      7.295598     -0.185376
  H      -6.046107      7.465081      0.006176
  H      -3.425199     11.418720     -1.472162
  C      -7.605592      9.617880     -0.292007
  C      -8.495849      8.681539     -0.860834
  C      -9.863006      8.713669     -0.561793
  C     -10.387282      9.683765      0.314133
  C      -8.134112     10.580397      0.598759
  C      -9.500776     10.611599      0.895658
  H      -8.104686      7.927026     -1.560380
  H     -10.539808      7.974756     -1.019418
  H      -7.455656     11.299737      1.082963
  H      -9.888159     11.362910      1.601910
  C     -11.845716      9.698140      0.660002
  Cl    -12.190295      8.688244      2.140072
  H     -12.466168      9.275980     -0.152684
  H     -12.204369     10.718041      0.894422
  C      -0.643952     13.750971      2.989573
  C       0.383945     14.746908      2.509336
  H      -0.383016     13.379339      4.002031
  H      -1.605762     14.304810      3.116971
  C      -0.165396     14.084074      0.130843
  C       0.607695     14.916854      1.126641
  H      -1.079287     14.651995     -0.165638
  H       0.420078     13.955305     -0.802813
  C       1.095974     15.555842      3.413645
  C       1.985799     16.537176      2.965991
  C       1.508515     15.899320      0.687588
  C       2.199402     16.741250      1.583792
  H       1.642494     16.042432     -0.396353
  H       0.945667     15.411104      4.495589
  H       2.541703     17.142033      3.697980
  C       3.047965     17.848697      1.080830
  C       3.742311     17.754860     -0.146555
  C       4.431620     18.852834     -0.674976
  C       4.461478     20.090764     -0.003358
  C       3.801509     20.175130      1.239316
  H       3.746218     16.801566     -0.695911
  H       4.953246     18.750789     -1.639911
  C       3.117622     19.078594      1.772174
  H       3.768203     21.137288      1.772293
  H       2.572016     19.203078      2.718941
  C      -5.999023     12.026194     -1.342055
  C      -5.326133     13.163994     -0.591794
  H      -7.089769     12.026918     -1.141228
  H      -5.901740     12.220449     -2.432399
  C      -4.748951     12.962487      0.678493
  C      -4.064822     13.988722      1.336249
  C      -5.220602     14.449186     -1.157744
  C      -4.548262     15.484420     -0.494052
  C      -3.940148     15.274735      0.764360
  H      -4.782648     11.963097      1.137572
  H      -3.575480     13.769762      2.296090
  H      -5.662812     14.641853     -2.148737
  H      -4.486505     16.478592     -0.963073
  C      -3.136310     16.337548      1.422915
  C      -2.247604     17.104352      0.636487
  C      -1.423537     18.100964      1.176652
  C      -3.231462     16.631979      2.811389
  C      -2.347493     17.580337      3.355341
  C      -1.434501     18.301235      2.574027
  H      -2.199824     16.906419     -0.446525
  H      -2.417521     17.809931      4.431760
  C      -4.411993     16.194666      3.671543
  C      -5.405125     17.345418      3.669370
  H      -4.084175     15.977142      4.708103
  H      -4.888646     15.280717      3.272331
  C      -5.639835     18.145504      4.798572
  C      -6.401150     19.319779      4.687533
  C      -6.940300     19.733047      3.454395
  C      -6.734635     18.912883      2.309629
  C      -5.989448     17.734654      2.449334
  H      -5.198849     17.868845      5.769612
  H      -6.563793     19.951659      5.574528
  H      -5.800962     17.128953      1.549437
  C      -7.595308     21.066152      3.334326
  C      -8.940041     21.221297      2.947594
  C      -9.479080     22.497486      2.727231
  C      -8.693042     23.651735      2.897796
  C      -7.357775     23.499155      3.321121
  C      -6.820937     22.229786      3.540114
  H      -9.567440     20.328991      2.800419
  H      -5.765937     22.122128      3.832787
  H      -6.724973     24.391704      3.443588
  H     -10.528824     22.598028      2.407907
  C      -9.255613     25.018522      2.633453
  Cl     -8.340618     25.906841      1.327825
  H      -9.191690     25.670924      3.526325
  H     -10.310578     24.969028      2.304782
  C      -7.171089     19.343142      0.921822
  C      -6.610974     20.694830      0.516615
  H      -8.277542     19.385622      0.845377
  H      -6.847890     18.562068      0.200046
  C      -5.273587     21.048713      0.787639
  C      -4.806105     22.342631      0.524033
  C      -5.658636     23.315857     -0.039191
  C      -7.445357     21.655163     -0.081670
  C      -6.979160     22.941956     -0.364233
  H      -4.597025     20.310112      1.246550
  H      -3.763582     22.606458      0.759537
  H      -8.497460     21.401865     -0.287263
  H      -7.665264     23.697983     -0.773253
  C      -5.243083     24.724916     -0.243685
  C      -4.735964     25.489498      0.824477
  C      -4.486351     26.866741      0.692997
  C      -5.444858     25.363967     -1.485508
  C      -5.145015     26.720120     -1.640620
  C      -4.681535     27.490271     -0.558234
  H      -4.595484     25.006131      1.804884
  H      -5.829449     24.780584     -2.335781
  H      -5.286560     27.201909     -2.621652
  C      -4.108511     27.700866      1.897755
  C      -3.338141     28.957330      1.562431
  C      -3.464723     29.543537      0.286141
  C      -4.439912     28.973021     -0.714399
  H      -5.414063     29.507428     -0.597536
  H      -4.110106     29.201892     -1.749302
  H      -3.541300     27.089697      2.630851
  H      -5.053341     27.984148      2.422432
  C      -2.504091     29.572874      2.511025
  C      -2.694268     30.676774     -0.017289
  C      -1.842958     31.282772      0.925147
  C      -1.769352     30.739766      2.237230
  H      -2.419182     29.118134      3.512406
  H      -2.760674     31.119077     -1.024568
  C      -0.959439     32.396775      0.485574
  C      -0.006282     32.153131     -0.527256
  C       0.938656     33.124026     -0.873708
  C      -0.986021     33.675205      1.082227
  C      -0.036495     34.645404      0.739152
  C       0.955721     34.373165     -0.223284
  H       0.021928     31.162018     -1.004248
  H       1.704015     32.896162     -1.632214
  H      -1.756254     33.906672      1.833475
  H      -0.052120     35.626808      1.239116
  C       2.066376     35.345716     -0.477321
  Cl      3.511032     34.951741      0.571627
  H       1.778763     36.384867     -0.230820
  H       2.427872     35.306493     -1.522058
  C      -0.863245     31.308733      3.321177
  C      -0.524609     18.951483      0.307821
  C      -0.477133     19.294058      3.182808
  C      -0.207124     20.480331      2.286140
  H       0.484096     18.757775      3.368995
  H      -0.834546     19.628023      4.178046
  C      -0.265914     20.324679      0.885979
  H      -0.937694     19.025742     -0.718926
  H       0.460104     18.438548      0.201021
  C      -0.007218     21.439214      0.068362
  C       0.138348     21.732190      2.815917
  C       0.442808     22.838243      1.999797
  C       0.360068     22.694545      0.588119
  H      -0.052580     21.314287     -1.026436
  H       0.184231     21.860073      3.909667
  C       0.913539     24.091553      2.648271
  C       2.056514     24.069204      3.474031
  C       0.263116     25.328317      2.460068
  C       0.745257     26.496622      3.062317
  C       1.885407     26.473760      3.892605
  C       2.533213     25.237480      4.081559
  H       3.434370     25.189462      4.714145
  H       2.595744     23.119813      3.613483
  H      -0.644428     25.375655      1.838648
  H       0.218377     27.444853      2.880226
  C       2.372094     27.715071      4.633559
  C       0.895722     29.594492      3.934551
  C       1.558795     31.403630      2.498308
  C       0.553531     30.771741      3.252994
  H      -1.299354     31.048847      4.306647
  H      -0.834783     32.411959      3.264730
  C       2.177765     29.012637      3.882377
  C       3.197315     29.671454      3.138866
  C       2.842997     30.859381      2.452365
  H       1.352354     32.337639      1.959012
  H       3.610277     31.378925      1.859444
  H       0.131161     29.105907      4.561119
  H       3.429605     27.574158      4.927902
  H       1.799290     27.779294      5.585744
  C       4.634740     29.280440      3.147703
  C       5.126384     27.954630      3.092113
  C       6.505213     27.692712      3.166973
  C       7.445900     28.736155      3.264686
  C       6.968216     30.064359      3.255515
  C       5.592543     30.314723      3.227904
  H       4.428866     27.112787      2.975510
  H       6.854613     26.647478      3.136765
  H       5.250199     31.358732      3.292557
  C       5.152194     21.297164     -0.615761
  C       4.481305     22.609059     -0.250249
  H       5.141868     21.181194     -1.720956
  H       6.222998     21.301266     -0.327425
  C       5.120036     23.670683      0.445437
  C       4.389029     24.858412      0.673179
  C       3.031142     24.959970      0.351313
  C       3.125093     22.743705     -0.585330
  C       2.364404     23.870007     -0.240302
  H       2.621584     21.889371     -1.066366
  H       4.884835     25.692930      1.191643
  H       2.473679     25.866930      0.631526
  C       0.851063     23.787060     -0.355994
  H       0.553887     23.523678     -1.391889
  H       0.398595     24.770089     -0.127998
  C       6.482610     23.530901      1.017705
  C       6.813025     22.388050      1.779212
  C       8.088530     22.217081      2.315109
  C       9.092926     23.186723      2.131325
  C       8.753862     24.354810      1.421575
  C       7.472471     24.525837      0.871833
  H       6.055553     21.612190      1.961879
  H       8.303498     21.303037      2.879263
  H       9.515663     25.137029      1.269133
  H       7.243996     25.434877      0.294125
  C      10.505368     22.938033      2.631410
  C      10.640063     22.703715      4.129477
  H      11.137276     23.806963      2.358470
  H      10.916199     22.074736      2.071947
  C      10.866675     23.828550      4.943943
  C      10.994905     23.738561      6.333979
  C      10.904154     22.475145      6.957908
  C      10.657508     21.349011      6.164300
  C      10.520863     21.433245      4.760130
  C      10.153017     20.198753      4.012866
  H      10.589078     20.357432      6.639860
  H      10.953906     24.817844      4.464077
  C      10.857314     19.740618      2.881845
  C      10.366399     18.673996      2.114224
  C       9.172879     18.018093      2.466965
  C       8.509420     18.419970      3.644230
  C       8.997024     19.482854      4.407262
  H      11.794866     20.235354      2.587495
  H      10.918015     18.350641      1.217116
  H       7.574782     17.916669      3.936729
  H       8.442126     19.818730      5.296692
  C       8.576912     16.959346      1.585558
  Cl      7.038445     17.542558      0.799589
  H       8.299752     16.050075      2.153681
  H       9.267887     16.670473      0.771411
  C      11.110022     22.407223      8.458277
  C      12.230364     23.331481      8.885405
  H      11.298777     21.367256      8.790418
  H      10.165807     22.727664      8.962378
  C      12.327560     24.585418      8.241643
  C      11.283112     24.935371      7.206839
  H      11.591621     25.812122      6.603351
  H      10.344143     25.235496      7.731524
  C      13.197017     22.993123      9.846731
  C      14.254126     23.864018     10.145437
  C      14.393264     25.098944      9.472965
  C      13.399274     25.434493      8.525284
  H      13.473644     26.369919      7.952581
  H      14.987554     23.567101     10.909262
  H      13.129163     22.023428     10.365279
  C      15.552415     26.002610      9.684050
  C      16.745107     25.592631     10.316951
  C      17.829797     26.471408     10.419265
  C      15.512617     27.319550      9.178817
  C      16.602490     28.194428      9.220426
  C      17.792107     27.766430      9.866943
  H      18.750646     26.135414     10.922296
  H      16.845368     24.571693     10.712635
  H      14.590124     27.685787      8.714836
  C      18.988448     28.658796      9.978707
  Cl     18.747767     29.989012     11.214319
  H      19.221940     29.180215      9.030455
  H      19.883738     28.099221     10.306448
  C      16.503533     29.565974      8.566178
  C      15.228727     29.787391      7.786596
  H      17.378212     29.696523      7.890191
  H      16.623005     30.347054      9.346974
  C      15.022410     29.158245      6.539977
  C      13.813912     29.296525      5.846272
  C      12.764208     30.088085      6.365886
  C      12.972024     30.712588      7.615777
  C      14.177763     30.560716      8.312354
  H      15.827980     28.543711      6.106817
  C      11.512656     30.326557      5.602623
  C      10.839073     29.309285      4.888945
  C      10.976713     31.632730      5.567264
  C       9.675016     29.576983      4.143749
  C       9.174271     30.898315      4.104222
  C       9.824937     31.909421      4.829188
  H      11.224663     28.277281      4.933064
  H      11.492910     32.443440      6.102452
  H       9.425664     32.935761      4.799791
  C       7.959563     31.200317      3.265641
  H       7.477619     32.142326      3.595811
  H       8.290670     31.385747      2.214509
  C       8.943372     28.501148      3.356202
  H       9.361948     28.485415      2.319938
  H       9.155267     27.494709      3.772813
  H      14.304495     31.046903      9.292641
  H      12.163688     31.315401      8.056518
  H      13.692379     28.818604      4.861889
324
Coordinates from ORCA-job input E -9763.440215946726
  C      -2.244145      9.061232      2.157769
  C      -3.506244      9.123776      2.786077
  C      -4.130778      7.966534      3.262911
  C      -3.509613      6.709429      3.131352
  C      -2.234561      6.647266      2.534703
  C      -1.611643      7.804620      2.053778
  H      -0.612075      7.740528      1.597582
  H      -1.721901      5.675572      2.454706
  H      -4.013280     10.096879      2.869471
  H      -5.122787      8.034791      3.736304
  C      -4.167554      5.471233      3.662069
  Cl     -3.694328      5.156007      5.395000
  H      -3.870552      4.569838      3.093643
  H      -5.270490      5.555816      3.654297
  C      -0.853442     11.687393     -0.218259
  C      -0.618327     12.768097      0.649499
  C      -1.365404     10.456679      0.224276
  C      -0.865616     12.606696      2.027569
  C      -1.627442     10.301191      1.612766
  H      -0.663971     11.823847     -1.296250
  C      -1.359991     11.373582      2.483812
  H      -1.551776     11.235047      3.560360
  C      -1.796698      9.409139     -0.794182
  C      -3.315010      9.372243     -0.859247
  H      -1.408917      8.402827     -0.545831
  H      -1.375585      9.681175     -1.784342
  C      -4.065442      8.245788     -0.477968
  C      -5.456493      8.336868     -0.358877
  C      -6.143430      9.551913     -0.582494
  C      -5.401812     10.675065     -1.034198
  C      -4.009990     10.547796     -1.179184
  H      -3.553868      7.307204     -0.215364
  H      -6.029141      7.463613     -0.010762
  H      -3.435600     11.436050     -1.486900
  C      -7.601021      9.608650     -0.292694
  C      -8.489747      8.671142     -0.861830
  C      -9.855291      8.694208     -0.554328
  C     -10.379468      9.655883      0.330926
  C      -8.129294     10.562536      0.607588
  C      -9.494245     10.584635      0.913052
  H      -8.099031      7.922826     -1.568270
  H     -10.530840      7.954313     -1.012243
  H      -7.451548     11.281885      1.092763
  H      -9.881160     11.329245      1.626636
  C     -11.835676      9.659958      0.686369
  Cl    -12.166187      8.638984      2.162117
  H     -12.459088      9.239615     -0.125008
  H     -12.198259     10.676430      0.929521
  C      -0.641169     13.760976      2.977519
  C       0.379089     14.764151      2.496701
  H      -0.372742     13.385518      3.986595
  H      -1.604787     14.309492      3.113277
  C      -0.179408     14.110051      0.117938
  C       0.595513     14.940853      1.113620
  H      -1.096938     14.675560     -0.170858
  H       0.401669     13.988044     -0.819377
  C       1.092256     15.571997      3.401050
  C       1.976631     16.557990      2.953083
  C       1.491805     15.927098      0.674521
  C       2.183500     16.767644      1.570860
  H       1.619728     16.074997     -0.409609
  H       0.946664     15.423292      4.483112
  H       2.533589     17.162129      3.684894
  C       3.027987     17.877369      1.068089
  C       3.722083     17.784418     -0.159270
  C       4.409047     18.883338     -0.687880
  C       4.434888     20.121946     -0.017598
  C       3.775147     20.205537      1.225336
  H       3.727965     16.830884     -0.708347
  H       4.932173     18.781506     -1.652124
  C       3.094998     19.107356      1.759226
  H       3.738936     21.168152      1.757454
  H       2.550528     19.230523      2.706788
  C      -6.011827     12.030074     -1.341242
  C      -5.338268     13.167939     -0.591832
  H      -7.101079     12.025616     -1.132621
  H      -5.923267     12.228284     -2.431629
  C      -4.751058     12.963754      0.673401
  C      -4.066105     13.989956      1.330132
  C      -5.242086     14.455724     -1.153352
  C      -4.568879     15.490968     -0.490499
  C      -3.949549     15.278448      0.762056
  H      -4.777293     11.962333      1.128545
  H      -3.568023     13.769134      2.284924
  H      -5.693483     14.650935     -2.139700
  H      -4.514173     16.486931     -0.956696
  C      -3.146667     16.342726      1.419435
  C      -2.267393     17.117249      0.630179
  C      -1.444806     18.116001      1.168168
  C      -3.232750     16.630741      2.809756
  C      -2.350932     17.582997      3.350991
  C      -1.448664     18.313331      2.565995
  H      -2.224689     16.922611     -0.453627
  H      -2.416276     17.809861      4.428269
  C      -4.403556     16.182635      3.677837
  C      -5.400564     17.329650      3.687370
  H      -4.066073     15.961806      4.710558
  H      -4.879005     15.268300      3.277988
  C      -5.625556     18.129176      4.818898
  C      -6.387100     19.303776      4.714227
  C      -6.935779     19.717393      3.485428
  C      -6.740775     18.897216      2.339233
  C      -5.996257     17.718137      2.472732
  H      -5.176462     17.852207      5.786119
  H      -6.543052     19.935234      5.602733
  H      -5.815045     17.112416      1.571349
  C      -7.585692     21.052855      3.368396
  C      -8.930969     21.213013      2.985814
  C      -9.465337     22.491265      2.765527
  C      -8.673944     23.642624      2.932718
  C      -7.338095     23.484802      3.352229
  C      -6.805770     22.213416      3.570426
  H      -9.562230     20.323061      2.840885
  H      -5.749648     22.101724      3.857522
  H      -6.701564     24.374952      3.473207
  H     -10.515569     22.595845      2.449096
  C      -9.231793     25.011779      2.669745
  Cl     -8.318222     25.896376      1.360428
  H      -9.161816     25.664236      3.562104
  H     -10.288107     24.966334      2.344928
  C      -7.185212     19.330410      0.955317
  C      -6.619616     20.678805      0.546701
  H      -8.291842     19.380305      0.886749
  H      -6.872607     18.547626      0.230667
  C      -5.280113     21.028456      0.813609
  C      -4.808182     22.319806      0.544321
  C      -5.658461     23.293841     -0.020932
  C      -7.452112     21.640560     -0.051658
  C      -6.981540     22.924436     -0.340416
  H      -4.605124     20.289307      1.274171
  H      -3.763322     22.580341      0.775165
  H      -8.505846     21.390589     -0.253210
  H      -7.665255     23.681726     -0.751156
  C      -5.237947     24.700223     -0.235540
  C      -4.750428     25.478475      0.831957
  C      -4.498259     26.853946      0.686808
  C      -5.417101     25.322524     -1.489036
  C      -5.112427     26.676051     -1.657108
  C      -4.668731     27.460100     -0.576675
  H      -4.627725     25.007363      1.820643
  H      -5.786372     24.727541     -2.338089
  H      -5.235767     27.144908     -2.646833
  C      -4.145888     27.705883      1.886939
  C      -3.359776     28.951706      1.547897
  C      -3.455668     29.516801      0.259464
  C      -4.418951     28.939693     -0.748402
  H      -5.392198     29.479848     -0.651743
  H      -4.073306     29.154248     -1.781147
  H      -3.599631     27.104559      2.643609
  H      -5.102242     28.002150      2.382823
  C      -2.537650     29.575633      2.501858
  C      -2.662217     30.631881     -0.051178
  C      -1.816173     31.240342      0.894487
  C      -1.779453     30.725709      2.219901
  H      -2.478858     29.139760      3.513434
  H      -2.702114     31.054026     -1.068897
  C      -0.885877     32.312046      0.447177
  C       0.080568     32.004255     -0.535381
  C       1.087158     32.917123     -0.864388
  C      -0.863983     33.599909      1.023218
  C       0.148246     34.511705      0.698927
  C       1.155680     34.170327     -0.225138
  H       0.071950     31.004843     -0.995422
  H       1.862235     32.637184     -1.595038
  H      -1.638615     33.880434      1.752784
  H       0.171576     35.499267      1.186259
  C       2.335321     35.067525     -0.442440
  Cl      3.720553     34.573220      0.645785
  H       2.111860     36.122697     -0.197721
  H       2.724628     35.008007     -1.476171
  C      -0.889324     31.305745      3.312189
  C      -0.554809     18.971484      0.295779
  C      -0.494606     19.311282      3.172038
  C      -0.230574     20.498767      2.274745
  H       0.469128     18.779292      3.357038
  H      -0.851852     19.644098      4.167744
  C      -0.295275     20.343837      0.874785
  H      -0.974727     19.046848     -0.728121
  H       0.430743     18.461270      0.181690
  C      -0.041780     21.458470      0.056360
  C       0.117845     21.750902      2.803247
  C       0.419678     22.857085      1.985594
  C       0.328073     22.713606      0.573640
  H      -0.094169     21.333945     -1.038192
  H       0.170626     21.878209      3.896752
  C       0.894916     24.110518      2.631331
  C       2.041443     24.086312      3.452386
  C       0.243801     25.347730      2.449051
  C       0.728055     26.514363      3.053230
  C       1.870201     26.489599      3.881221
  C       2.519498     25.252888      4.062912
  H       3.422878     25.202792      4.692176
  H       2.580457     23.136135      3.588314
  H      -0.667938     25.396369      1.833283
  H       0.199904     27.462460      2.874930
  C       2.354473     27.726764      4.631913
  C       0.876699     29.601825      3.928907
  C       1.550249     31.441145      2.538286
  C       0.535808     30.787205      3.260953
  H      -1.332381     31.039662      4.292849
  H      -0.875299     32.409530      3.257109
  C       2.164088     29.030449      3.889680
  C       3.190697     29.706250      3.170352
  C       2.838598     30.905569      2.501532
  H       1.349871     32.386245      2.017381
  H       3.608911     31.443649      1.929423
  H       0.105437     29.097237      4.534200
  H       3.410023     27.583963      4.932416
  H       1.776170     27.784717      5.581278
  C       4.629342     29.316713      3.181588
  C       5.121694     27.991085      3.116493
  C       6.500620     27.727933      3.190360
  C       7.441560     28.770296      3.293685
  C       6.964291     30.098812      3.296784
  C       5.588245     30.349835      3.272726
  H       4.424373     27.149937      2.993825
  H       6.850546     26.682727      3.152004
  H       5.247056     31.393519      3.346838
  C       5.120773     21.328880     -0.632880
  C       4.446358     22.640019     -0.271836
  H       5.109977     21.209876     -1.737795
  H       6.191976     21.338339     -0.345941
  C       5.082669     23.707777      0.417433
  C       4.348337     24.897071      0.630841
  C       2.990274     24.991514      0.308156
  C       3.089251     22.767556     -0.606422
  C       2.325325     23.893800     -0.268965
  H       2.588149     21.907580     -1.079862
  H       4.840750     25.739928      1.138537
  H       2.430462     25.899213      0.579563
  C       0.811564     23.805364     -0.375949
  H       0.509253     23.538406     -1.409490
  H       0.356986     24.787512     -0.148222
  C       6.441316     23.571492      1.001528
  C       6.766517     22.428859      1.766315
  C       8.036891     22.258789      2.315655
  C       9.042092     23.229755      2.144192
  C       8.707750     24.397769      1.430989
  C       7.432314     24.567060      0.866303
  H       6.009066     21.651567      1.942504
  H       8.246645     21.343099      2.879790
  H       9.469950     25.181052      1.286111
  H       7.210240     25.475597      0.285329
  C      10.450903     22.984456      2.657634
  C      10.579485     22.752081      4.157200
  H      11.082348     23.854567      2.387410
  H      10.868205     22.121116      2.103617
  C      10.810549     23.876737      4.970894
  C      10.935626     23.787672      6.361478
  C      10.833672     22.526344      6.987377
  C      10.584381     21.399996      6.194858
  C      10.453692     21.482877      4.789867
  C      10.092754     20.245635      4.043232
  H      10.508972     20.409440      6.671365
  H      10.905682     24.864767      4.489858
  C      10.812630     19.781684      2.924162
  C      10.333089     18.710014      2.156693
  C       9.135644     18.054886      2.497965
  C       8.455361     18.463915      3.662827
  C       8.930065     19.533920      4.424474
  H      11.753987     20.274910      2.639973
  H      10.895445     18.383486      1.267452
  H       7.515136     17.963853      3.942962
  H       8.361504     19.877516      5.302177
  C       8.556709     16.986560      1.617177
  Cl      7.051014     17.568392      0.773542
  H       8.255624     16.089646      2.192796
  H       9.270727     16.677853      0.830438
  C      11.036114     22.462687      8.488750
  C      12.172780     23.370507      8.909401
  H      11.205881     21.421607      8.827408
  H      10.097582     22.804024      8.989538
  C      12.282821     24.621487      8.262354
  C      11.234543     24.981544      7.235034
  H      11.544791     25.857770      6.632845
  H      10.300473     25.285042      7.766405
  C      13.143005     23.019809      9.862684
  C      14.215757     23.876129     10.149436
  C      14.366681     25.107907      9.473334
  C      13.368627     25.456109      8.534633
  H      13.450976     26.388600      7.958358
  H      14.951701     23.570014     10.907210
  H      13.066622     22.051658     10.382908
  C      15.542745     25.993468      9.669438
  C      16.734067     25.567431     10.294472
  C      17.834257     26.428208     10.381695
  C      15.520718     27.308437      9.157255
  C      16.625744     28.165310      9.184012
  C      17.813861     27.720315      9.821626
  H      18.753986     26.079055     10.877778
  H      16.820792     24.547747     10.696652
  H      14.600768     27.687312      8.698358
  C      19.026267     28.592484      9.917541
  Cl     18.817792     29.935593     11.144861
  H      19.261423     29.102709      8.963633
  H      19.914168     28.019793     10.242749
  C      16.543506     29.536130      8.524715
  C      15.265681     29.773067      7.754505
  H      17.415034     29.651583      7.842207
  H      16.680351     30.317942      9.302056
  C      15.044178     29.150930      6.507037
  C      13.829729     29.299445      5.825435
  C      12.789229     30.094071      6.359125
  C      13.012542     30.711217      7.610044
  C      14.224084     30.549702      8.293936
  H      15.841540     28.532497      6.064362
  C      11.529977     30.341081      5.610916
  C      10.848096     29.330015      4.896858
  C      10.995387     31.648222      5.589386
  C       9.677453     29.603349      4.164917
  C       9.177583     30.925047      4.138933
  C       9.836592     31.930865      4.864169
  H      11.233889     28.298111      4.928730
  H      11.518523     32.454952      6.123834
  H       9.437998     32.957712      4.845256
  C       7.956335     31.234455      3.312367
  H       7.476963     32.173430      3.654830
  H       8.279964     31.430278      2.260753
  C       8.938847     28.532696      3.377634
  H       9.352497     28.519696      2.339334
  H       9.150460     27.524270      3.789704
  H      14.362293     31.028927      9.276121
  H      12.211750     31.316265      8.061367
  H      13.695994     28.826994      4.840002
324
Coordinates from ORCA-job input E -9763.440319971191
  C      -2.239943      9.063503      2.176025
  C      -3.501430      9.121517      2.805715
  C      -4.121193      7.962002      3.283295
  C      -3.495761      6.707090      3.151221
  C      -2.220771      6.649545      2.553853
  C      -1.602701      7.809130      2.072110
  H      -0.603453      7.748553      1.614687
  H      -1.704625      5.679744      2.473115
  H      -4.012528     10.092704      2.889267
  H      -5.113017      8.026710      3.757573
  C      -4.149039      5.466602      3.682204
  Cl     -3.675329      5.154254      5.415673
  H      -3.847898      4.566134      3.114553
  H      -5.252289      5.546732      3.673888
  C      -0.856656     11.688708     -0.204707
  C      -0.623400     12.771095      0.661482
  C      -1.365807     10.457704      0.239694
  C      -0.869119     12.610975      2.039890
  C      -1.627186     10.303869      1.628654
  H      -0.669204     11.824820     -1.283056
  C      -1.361411     11.377747      2.498115
  H      -1.552148     11.240350      3.574978
  C      -1.792902      9.406979     -0.777344
  C      -3.311109      9.366117     -0.843564
  H      -1.403312      8.402131     -0.525947
  H      -1.371567      9.678131     -1.767568
  C      -4.058687      8.237845     -0.461963
  C      -5.449963      8.325310     -0.343973
  C      -6.140015      9.538270     -0.569431
  C      -5.401087     10.663682     -1.019825
  C      -4.008827     10.539878     -1.164049
  H      -3.544834      7.301083     -0.197400
  H      -6.020821      7.450563      0.003371
  H      -3.436251     11.429590     -1.470823
  C      -7.597815      9.590664     -0.279980
  C      -8.483209      8.651420     -0.851032
  C      -9.849121      8.670324     -0.544789
  C     -10.376778      9.629188      0.341264
  C      -8.129885     10.543502      0.619341
  C      -9.495119     10.561441      0.923600
  H      -8.089939      7.905746     -1.558825
  H     -10.521873      7.927851     -1.002649
  H      -7.455073     11.266905      1.102585
  H      -9.884779     11.303632      1.638196
  C     -11.833095      9.627998      0.695647
  Cl    -12.158905      8.614078      2.177353
  H     -12.453785      9.199292     -0.113394
  H     -12.201270     10.643768      0.933251
  C      -0.645574     13.765670      2.989298
  C       0.369118     14.772428      2.505175
  H      -0.369387     13.389688      3.996150
  H      -1.611422     14.308488      3.132202
  C      -0.187188     14.112873      0.127472
  C       0.585564     14.946896      1.121811
  H      -1.105439     14.677230     -0.161516
  H       0.394094     13.990169     -0.809556
  C       1.081259     15.582542      3.408384
  C       1.964407     16.568742      2.958683
  C       1.479909     15.934161      0.680864
  C       2.169197     16.777354      1.576092
  H       1.607978     16.080734     -0.403468
  H       0.935237     15.436206      4.490699
  H       2.521130     17.174841      3.689151
  C       3.011415     17.887237      1.071228
  C       3.705452     17.794752     -0.156111
  C       4.392619     18.894303     -0.683501
  C       4.416944     20.132878     -0.012515
  C       3.755827     20.215642      1.229479
  H       3.712295     16.841239     -0.705234
  H       4.917944     18.792778     -1.646688
  C       3.076502     19.116760      1.762748
  H       3.718330     21.178039      1.761908
  H       2.532677     19.238378      2.710754
  C      -6.015072     12.017282     -1.326476
  C      -5.342499     13.157702     -0.579436
  H      -7.103639     12.010427     -1.114806
  H      -5.929902     12.214795     -2.417264
  C      -4.754268     12.956847      0.686040
  C      -4.069925     13.985284      1.339855
  C      -5.248631     14.444778     -1.143527
  C      -4.575944     15.482237     -0.483316
  C      -3.954914     15.272465      0.768658
  H      -4.779703     11.956562      1.143964
  H      -3.569928     13.767811      2.294301
  H      -5.702099     14.637644     -2.129370
  H      -4.521552     16.477482     -0.951827
  C      -3.152916     16.338797      1.423362
  C      -2.277436     17.114645      0.631562
  C      -1.455318     18.114838      1.167070
  C      -3.236837     16.626837      2.813636
  C      -2.355652     17.581164      3.352410
  C      -1.456505     18.312893      2.564792
  H      -2.236249     16.919351     -0.452186
  H      -2.420582     17.809785      4.429320
  C      -4.408585     16.182713      3.682331
  C      -5.403830     17.331482      3.688045
  H      -4.071481     15.964179      4.715554
  H      -4.885703     15.267966      3.284911
  C      -5.633041     18.131559      4.818333
  C      -6.392598     19.307247      4.709727
  C      -6.934829     19.720829      3.478248
  C      -6.736702     18.898900      2.333650
  C      -5.994574     17.719222      2.470944
  H      -5.188179     17.854553      5.787469
  H      -6.550524     19.940120      5.596843
  H      -5.810224     17.112484      1.571222
  C      -7.582257     21.057089      3.354642
  C      -8.925611     21.216372      2.964743
  C      -9.457227     22.493618      2.732568
  C      -8.664753     23.644915      2.894008
  C      -7.331438     23.488715      3.322363
  C      -6.801960     22.218101      3.552883
  H      -9.557436     20.326383      2.822443
  H      -5.746815     22.106894      3.843626
  H      -6.694390     24.378960      3.439194
  H     -10.505449     22.597021      2.409143
  C      -9.224330     25.012357      2.622388
  Cl     -8.284620     25.908065      1.340981
  H      -9.182966     25.661724      3.519031
  H     -10.272119     24.960573      2.271849
  C      -7.173597     19.331501      0.947434
  C      -6.595382     20.675095      0.540195
  H      -8.279411     19.389250      0.874506
  H      -6.862782     18.545679      0.225346
  C      -5.254725     21.015710      0.816507
  C      -4.770833     22.303506      0.547844
  C      -5.610577     23.281584     -0.026706
  C      -7.416341     21.641218     -0.066193
  C      -6.933989     22.920439     -0.354336
  H      -4.589151     20.273089      1.285444
  H      -3.724286     22.556684      0.784752
  H      -8.471319     21.400226     -0.271590
  H      -7.609073     23.681624     -0.772003
  C      -5.183299     24.685799     -0.238410
  C      -4.707150     25.465863      0.832994
  C      -4.456670     26.841472      0.688583
  C      -5.349751     25.305587     -1.494734
  C      -5.046745     26.659329     -1.661589
  C      -4.617383     27.445391     -0.577317
  H      -4.597098     24.997408      1.824295
  H      -5.709718     24.708817     -2.346489
  H      -5.161831     27.126984     -2.652847
  C      -4.119954     27.697015      1.890896
  C      -3.331133     28.942727      1.556198
  C      -3.421067     29.505813      0.267058
  C      -4.377657     28.926364     -0.745120
  H      -5.354987     29.458949     -0.647018
  H      -4.031922     29.146725     -1.776441
  H      -3.583435     27.098224      2.655935
  H      -5.082714     27.994633      2.373354
  C      -2.514126     29.569981      2.512948
  C      -2.634646     30.625572     -0.039220
  C      -1.797649     31.242141      0.909117
  C      -1.761069     30.725327      2.234509
  H      -2.456894     29.134626      3.524819
  H      -2.673101     31.045186     -1.057564
  C      -0.894041     32.338218      0.460868
  C       0.096054     32.051186     -0.504855
  C       1.071745     32.996211     -0.838950
  C      -0.927951     33.636734      1.012612
  C       0.051986     34.582154      0.681448
  C       1.084577     34.263732     -0.223826
  H       0.127776     31.046138     -0.951544
  H       1.866214     32.732540     -1.554695
  H      -1.722759     33.900591      1.726381
  H       0.031648     35.578058      1.151539
  C       2.226621     35.207541     -0.453900
  Cl      3.636587     34.810685      0.643566
  H       1.953909     36.255812     -0.230677
  H       2.620958     35.146022     -1.485607
  C      -0.872057     31.304286      3.327458
  C      -0.572002     18.973695      0.291173
  C      -0.504747     19.313609      3.168918
  C      -0.242941     20.500306      2.270189
  H       0.459917     18.784115      3.355461
  H      -0.863130     19.647355      4.163922
  C      -0.312410     20.345912      0.870434
  H      -0.997831     19.050116     -0.730174
  H       0.414332     18.466459      0.170786
  C      -0.061718     21.460917      0.051152
  C       0.109196     21.751590      2.797652
  C       0.409823     22.856996      1.979201
  C       0.310904     22.715644      0.567595
  H      -0.118880     21.336872     -1.043224
  H       0.166924     21.878326      3.890961
  C       0.892442     24.108606      2.622337
  C       2.042270     24.078920      3.439105
  C       0.245545     25.348102      2.444148
  C       0.737900     26.512417      3.047779
  C       1.882012     26.482275      3.872977
  C       2.526966     25.242517      4.050334
  H       3.432113     25.187452      4.676606
  H       2.578464     23.126622      3.572214
  H      -0.669095     25.401327      1.831430
  H       0.213916     27.462944      2.872075
  C       2.373428     27.716085      4.626178
  C       0.893620     29.593306      3.934778
  C       1.563353     31.439300      2.553749
  C       0.551781     30.782719      3.274776
  H      -1.314858     31.038164      4.308267
  H      -0.856808     32.408263      3.271611
  C       2.181929     29.023304      3.889934
  C       3.206628     29.703025      3.170501
  C       2.852226     30.905763      2.509112
  H       1.358078     32.386917      2.040581
  H       3.617986     31.446348      1.933336
  H       0.123225     29.084233      4.537449
  H       3.429981     27.570003      4.921589
  H       1.799180     27.771123      5.578220
  C       4.646306     29.316187      3.177139
  C       5.139422     27.991949      3.098609
  C       6.518629     27.728740      3.167238
  C       7.459303     28.771651      3.278034
  C       6.981198     30.100168      3.292787
  C       5.604458     30.350198      3.272481
  H       4.442473     27.152054      2.965686
  H       6.867912     26.683532      3.118592
  H       5.261745     31.392942      3.352577
  C       5.105379     21.339839     -0.624999
  C       4.429706     22.651300     -0.268678
  H       5.098569     21.221002     -1.729987
  H       6.175525     21.349619     -0.333536
  C       5.063391     23.724188      0.415698
  C       4.328045     24.914508      0.620407
  C       2.969289     25.003973      0.295171
  C       3.072546     22.774354     -0.604403
  C       2.306362     23.900897     -0.273768
  H       2.573231     21.910470     -1.072447
  H       4.820151     25.763247      1.120399
  H       2.406796     25.911847      0.559761
  C       0.792399     23.808698     -0.381907
  H       0.491282     23.541258     -1.415717
  H       0.335439     24.789707     -0.154483
  C       6.421933     23.591209      1.000122
  C       6.742844     22.454605      1.776362
  C       8.013896     22.283077      2.324723
  C       9.024406     23.245565      2.135806
  C       8.694036     24.407450      1.410911
  C       7.417604     24.579272      0.850249
  H       5.981332     21.682909      1.960222
  H       8.220479     21.371135      2.897843
  H       9.460581     25.184160      1.254039
  H       7.199269     25.481896      0.258711
  C      10.436507     22.997915      2.637656
  C      10.572975     22.754477      4.134091
  H      11.064333     23.871743      2.371303
  H      10.851281     22.140537      2.073522
  C      10.808732     23.874770      4.952229
  C      10.936106     23.779678      6.342262
  C      10.830900     22.516488      6.963015
  C      10.579326     21.394035      6.165939
  C      10.446342     21.482418      4.761646
  C      10.085201     20.246845      4.012194
  H      10.504564     20.401670      6.638559
  H      10.904612     24.864573      4.474998
  C      10.801741     19.784703      2.889319
  C      10.321172     18.713714      2.122648
  C       9.127785     18.054075      2.469961
  C       8.452542     18.459111      3.638760
  C       8.924290     19.533691      4.395951
  H      11.743289     20.276598      2.604359
  H      10.877956     18.391985      1.228232
  H       7.514744     17.956539      3.922708
  H       8.356399     19.877242      5.273962
  C       8.546852     16.984868      1.593338
  Cl      7.054556     17.585240      0.737977
  H       8.226616     16.098091      2.173896
  H       9.260980     16.662002      0.812477
  C      11.031522     22.446063      8.464363
  C      12.168916     23.350117      8.890766
  H      11.199098     21.403213      8.798881
  H      10.093055     22.787006      8.965283
  C      12.283662     24.602441      8.247860
  C      11.239481     24.969525      7.219359
  H      11.555715     25.845376      6.620098
  H      10.305780     25.276516      7.749476
  C      13.134770     22.995466      9.847183
  C      14.206271     23.850440     10.142193
  C      14.360987     25.084262      9.470465
  C      13.368854     25.435303      8.527160
  H      13.455102     26.368983      7.953565
  H      14.938055     23.542049     10.903052
  H      13.056074     22.025315     10.363336
  C      15.534150     25.970660      9.677806
  C      16.718899     25.544751     10.314449
  C      17.818025     26.405662     10.413215
  C      15.516850     27.285512      9.165051
  C      16.621421     28.142589      9.203206
  C      17.802839     27.697971      9.853390
  H      18.732556     26.056632     10.918876
  H      16.801687     24.525019     10.717281
  H      14.601763     27.663063      8.695442
  C      19.014035     28.570399      9.961484
  Cl     18.791172     29.914408     11.185441
  H      19.259281     29.080302      9.010020
  H      19.898327     27.998234     10.297172
  C      16.545746     29.513926      8.543705
  C      15.270982     29.752802      7.768761
  H      17.419263     29.626900      7.863551
  H      16.680853     30.295208      9.321778
  C      15.056348     29.138546      6.516211
  C      13.844353     29.289285      5.830089
  C      12.799799     30.077387      6.365229
  C      13.016806     30.687096      7.620992
  C      14.225415     30.523337      8.309178
  H      15.857050     28.524984      6.072826
  C      11.543322     30.329464      5.614093
  C      10.864198     29.323193      4.889817
  C      11.006563     31.635558      5.603533
  C       9.694029     29.600913      4.158571
  C       9.193680     30.922706      4.142407
  C       9.849431     31.922987      4.877720
  H      11.250818     28.291492      4.914448
  H      11.526090     32.437935      6.148028
  H       9.449911     32.949566      4.866221
  C       7.973226     31.236385      3.315886
  H       7.493526     32.173505      3.662888
  H       8.298313     31.437367      2.265708
  C       8.957354     28.535860      3.360751
  H       9.371327     28.533523      2.322552
  H       9.170633     27.524309      3.763969
  H      14.358167     30.995643      9.295449
  H      12.212501     31.286869      8.073174
  H      13.715035     28.821496      4.841846
324
Coordinates from ORCA-job input E -9763.440262666520
  C      -2.233057      9.054413      2.166126
  C      -3.494549      9.112201      2.795417
  C      -4.113266      7.952821      3.274593
  C      -3.486501      6.698363      3.144782
  C      -2.211376      6.641012      2.547365
  C      -1.594312      7.800536      2.064057
  H      -0.595004      7.740216      1.606656
  H      -1.694043      5.671659      2.468627
  H      -4.006496     10.083320      2.877617
  H      -5.105250      8.017365      3.748626
  C      -4.138984      5.458197      3.677425
  Cl     -3.664934      5.147859      5.411105
  H      -3.837369      4.557225      3.110769
  H      -5.242299      5.537870      3.668642
  C      -0.857894     11.682112     -0.219032
  C      -0.625312     12.766053      0.645801
  C      -1.364153     10.450051      0.227258
  C      -0.868817     12.606141      2.024631
  C      -1.622344     10.295989      1.616900
  H      -0.670969     11.817081     -1.297618
  C      -1.358026     11.371861      2.484753
  H      -1.546656     11.235192      3.562073
  C      -1.793177      9.399320     -0.788820
  C      -3.311478      9.356795     -0.850731
  H      -1.401947      8.394719     -0.538759
  H      -1.374766      9.671365     -1.780007
  C      -4.056675      8.227714     -0.466908
  C      -5.447780      8.313516     -0.345578
  C      -6.139750      9.525595     -0.570713
  C      -5.402977     10.652032     -1.021816
  C      -4.011068     10.529830     -1.169370
  H      -3.540923      7.291988     -0.202268
  H      -6.016819      7.437719      0.002152
  H      -3.440075     11.420635     -1.476087
  C      -7.596764      9.577363     -0.277259
  C      -8.481965      8.636020     -0.845312
  C      -9.847465      8.654300     -0.537578
  C     -10.374964      9.615330      0.346140
  C      -8.128491     10.532054      0.620154
  C      -9.493494     10.549502      0.925671
  H      -8.088426      7.888678     -1.551203
  H     -10.520425      7.911258     -0.994245
  H      -7.453864     11.257185      1.101105
  H      -9.883419     11.294115      1.637613
  C     -11.831009      9.613703      0.701617
  Cl    -12.153364      8.602370      2.185758
  H     -12.451992      9.182582     -0.105916
  H     -12.200002     10.629589      0.937468
  C      -0.649319     13.762801      2.972480
  C       0.364015     14.770725      2.487544
  H      -0.372589     13.388569      3.979871
  H      -1.616582     14.303608      3.114252
  C      -0.192125     14.109080      0.110441
  C       0.579826     14.945285      1.104148
  H      -1.111730     14.672189     -0.178420
  H       0.388796     13.986915     -0.826845
  C       1.075150     15.581886      3.390688
  C       1.957108     16.569322      2.940997
  C       1.471423     15.935538      0.662700
  C       2.160314     16.779544      1.558227
  H       1.600942     16.081919     -0.421361
  H       0.930907     15.433760      4.473000
  H       2.513762     17.175879      3.671103
  C       2.999915     17.893330      1.054826
  C       3.690552     17.810448     -0.175333
  C       4.378026     18.914286     -0.695230
  C       4.406323     20.147044     -0.013079
  C       3.745992     20.220376      1.229586
  H       3.696989     16.860828     -0.730947
  H       4.898405     18.821507     -1.661849
  C       3.065852     19.118119      1.754919
  H       3.709100     21.178790      1.769163
  H       2.523161     19.232600      2.704306
  C      -6.019815     12.004279     -1.328509
  C      -5.352297     13.146127     -0.578725
  H      -7.108934     11.993709     -1.119636
  H      -5.932355     12.203581     -2.418764
  C      -4.765047     12.946548      0.687527
  C      -4.081883     13.976289      1.341030
  C      -5.258676     14.433062     -1.143880
  C      -4.587193     15.471486     -0.483979
  C      -3.969454     15.263688      0.769742
  H      -4.788019     11.945893      1.145438
  H      -3.585653     13.760506      2.297956
  H      -5.706595     14.623341     -2.132776
  H      -4.535842     16.467825     -0.950551
  C      -3.162993     16.328967      1.420628
  C      -2.290263     17.103652      0.624402
  C      -1.465840     18.104651      1.155902
  C      -3.241580     16.617905      2.810860
  C      -2.357470     17.571590      3.345324
  C      -1.460445     18.301844      2.553708
  H      -2.255747     16.909241     -0.459767
  H      -2.415998     17.798867      4.422932
  C      -4.412772     16.177823      3.682417
  C      -5.406537     17.328529      3.690576
  H      -4.073596     15.959625      4.715067
  H      -4.892784     15.263699      3.287115
  C      -5.629184     18.129495      4.821517
  C      -6.387373     19.306456      4.716496
  C      -6.934610     19.721421      3.487733
  C      -6.744342     18.898175      2.341976
  C      -6.002637     17.717329      2.475934
  H      -5.179615     17.852296      5.788451
  H      -6.536712     19.941442      5.603607
  H      -5.824410     17.109790      1.575554
  C      -7.581241     21.058965      3.368428
  C      -8.926960     21.221066      2.987604
  C      -9.457640     22.499241      2.758678
  C      -8.661733     23.648872      2.913733
  C      -7.325897     23.490284      3.333306
  C      -6.797535     22.218652      3.561231
  H      -9.562032     20.332493      2.850960
  H      -5.741350     22.105452      3.847412
  H      -6.685882     24.379211      3.444120
  H     -10.507810     22.604540      2.442210
  C      -9.220995     25.016906      2.644656
  Cl     -8.286138     25.911629      1.359229
  H      -9.175333     25.666359      3.541099
  H     -10.270487     24.966292      2.298894
  C      -7.187597     19.331013      0.957160
  C      -6.609326     20.674049      0.547334
  H      -8.293647     19.389498      0.889393
  H      -6.880366     18.545055      0.233731
  C      -5.267264     21.011278      0.819146
  C      -4.781310     22.298102      0.549858
  C      -5.620124     23.278962     -0.021400
  C      -7.430068     21.642520     -0.056127
  C      -6.945477     22.920932     -0.345067
  H      -4.601734     20.265919      1.283792
  H      -3.735127     22.549142      0.787248
  H      -8.486542     21.404500     -0.257333
  H      -7.619773     23.683816     -0.761031
  C      -5.188328     24.681621     -0.236552
  C      -4.705544     25.460341      0.832516
  C      -4.446906     26.834209      0.686290
  C      -5.354420     25.301612     -1.493283
  C      -5.042790     26.653728     -1.662275
  C      -4.605224     27.438439     -0.579726
  H      -4.596733     24.992598      1.824414
  H      -5.720679     24.706515     -2.343566
  H      -5.156610     27.120971     -2.653882
  C      -4.101186     27.687023      1.887683
  C      -3.306076     28.927739      1.552124
  C      -3.393005     29.492510      0.262656
  C      -4.352739     28.917737     -0.750199
  H      -5.325804     29.458607     -0.655187
  H      -4.003324     29.133043     -1.781397
  H      -3.565988     27.084002      2.650725
  H      -5.060400     27.990066      2.373870
  C      -2.489086     29.551202      2.510927
  C      -2.596753     30.607177     -0.042604
  C      -1.762602     31.218327      0.911174
  C      -1.732458     30.703135      2.233538
  H      -2.436752     29.116601      3.523411
  H      -2.630360     31.030900     -1.059251
  C      -0.845018     32.306861      0.483622
  C       0.159582     32.014472     -0.463929
  C       1.134606     32.960157     -0.790981
  C      -0.892248     33.606872      1.028272
  C       0.086384     34.553446      0.703228
  C       1.130001     34.232138     -0.186838
  H       0.198822     31.007202     -0.905218
  H       1.941616     32.694017     -1.491716
  H      -1.701413     33.873746      1.724803
  H       0.056625     35.552340      1.166593
  C       2.264139     35.180519     -0.414437
  Cl      3.650044     34.789999      0.713294
  H       1.983591     36.230007     -0.207040
  H       2.676136     35.106860     -1.438440
  C      -0.843642     31.289403      3.322485
  C      -0.585648     18.963645      0.275954
  C      -0.505441     19.301129      3.154397
  C      -0.245755     20.487323      2.255038
  H       0.459113     18.770622      3.338852
  H      -0.860332     19.635617      4.150472
  C      -0.322874     20.335637      0.855419
  H      -1.016957     19.041352     -0.743001
  H       0.399413     18.455778      0.149638
  C      -0.072934     21.452588      0.037080
  C       0.109427     21.736888      2.783117
  C       0.405954     22.843539      1.966238
  C       0.302493     22.706208      0.555842
  H      -0.129578     21.329914     -1.057488
  H       0.168743     21.862312      3.876524
  C       0.894254     24.092298      2.610522
  C       2.045312     24.058390      3.425237
  C       0.254780     25.335368      2.429722
  C       0.754272     26.498558      3.029328
  C       1.900075     26.464241      3.851773
  C       2.538161     25.221051      4.031418
  H       3.443796     25.162532      4.656693
  H       2.578967     23.104600      3.557368
  H      -0.655487     25.393942      1.812106
  H       0.234956     27.451781      2.852141
  C       2.400294     27.696556      4.601474
  C       0.923087     29.579220      3.922483
  C       1.590943     31.427095      2.538105
  C       0.580225     30.769250      3.264667
  H      -1.284818     31.028016      4.305425
  H      -0.830444     32.393159      3.259775
  C       2.208942     29.006251      3.869066
  C       3.230835     29.684859      3.145331
  C       2.877825     30.889003      2.486506
  H       1.386455     32.378958      2.025816
  H       3.643485     31.426366      1.907743
  H       0.155470     29.071934      4.530168
  H       3.458117     27.545485      4.888943
  H       1.833117     27.752554      5.557627
  C       4.669823     29.299488      3.152216
  C       5.163910     27.976801      3.067444
  C       6.542806     27.715569      3.135606
  C       7.482320     28.759429      3.253997
  C       7.002740     30.087269      3.270411
  C       5.625733     30.335021      3.248682
  H       4.468271     27.136883      2.927452
  H       6.891562     26.671056      3.084114
  H       5.280686     31.377040      3.329062
  C       5.101850     21.358437     -0.610600
  C       4.418571     22.666488     -0.255100
  H       5.109463     21.246048     -1.716196
  H       6.167842     21.366968     -0.303898
  C       5.042597     23.739694      0.436799
  C       4.303267     24.925679      0.643811
  C       2.945570     25.011774      0.310895
  C       3.063940     22.786650     -0.601280
  C       2.291237     23.909344     -0.272382
  H       2.571715     21.924363     -1.079805
  H       4.788745     25.769120      1.159988
  H       2.379173     25.918886      0.572651
  C       0.778732     23.805501     -0.388374
  H       0.484308     23.538436     -1.424168
  H       0.312910     24.782238     -0.160029
  C       6.400922     23.613883      1.020111
  C       6.726051     22.481613      1.800125
  C       7.997547     22.318663      2.348659
  C       9.003347     23.284964      2.152875
  C       8.668080     24.442832      1.425294
  C       7.390162     24.607471      0.867316
  H       5.967788     21.706794      1.984519
  H       8.208158     21.411945      2.927871
  H       9.431145     25.222457      1.265649
  H       7.164771     25.509174      0.276951
  C      10.416209     23.042804      2.652197
  C      10.549701     22.795543      4.146876
  H      11.041075     23.920216      2.390877
  H      10.834804     22.190284      2.082775
  C      10.787204     23.915348      4.965638
  C      10.915779     23.819380      6.355239
  C      10.809822     22.554458      6.973566
  C      10.553162     21.434112      6.175762
  C      10.418589     21.523493      4.772365
  C      10.046546     20.291838      4.022645
  H      10.477437     20.441624      6.648159
  H      10.885746     24.904998      4.488656
  C      10.744680     19.832666      2.887057
  C      10.249256     18.767437      2.121831
  C       9.058951     18.109921      2.482823
  C       8.404906     18.508476      3.666104
  C       8.893288     19.575022      4.423528
  H      11.685629     20.320346      2.592789
  H      10.792134     18.448292      1.217964
  H       7.475327     18.001075      3.967759
  H       8.341807     19.911313      5.314800
  C       8.454371     17.052568      1.607489
  Cl      6.920596     17.661089      0.828255
  H       8.161078     16.152222      2.181245
  H       9.137501     16.751649      0.791284
  C      11.017419     22.477100      8.472653
  C      12.155277     23.379578      8.897384
  H      11.188526     21.432866      8.801264
  H      10.080840     22.813894      8.980026
  C      12.269595     24.635241      8.259342
  C      11.223308     25.008501      7.233003
  H      11.539861     25.886253      6.632633
  H      10.291197     25.316407      7.765347
  C      13.121225     23.018703      9.850871
  C      14.195253     23.868264     10.147240
  C      14.354205     25.101796      9.477385
  C      13.360265     25.461753      8.537916
  H      13.449055     26.397936      7.968843
  H      14.929162     23.553554     10.903371
  H      13.038413     22.048468     10.366307
  C      15.531544     25.981547      9.685919
  C      16.714818     25.548701     10.321755
  C      17.818047     26.404927     10.420127
  C      15.519952     27.295538      9.173055
  C      16.627449     28.147134      9.211045
  C      17.807149     27.698245      9.861873
  H      18.730738     26.052844     10.927010
  H      16.793283     24.527556     10.721625
  H      14.605744     27.677555      8.705555
  C      19.022654     28.565313      9.967400
  Cl     18.810648     29.908074     11.194882
  H      19.266680     29.076075      9.016028
  H      19.905693     27.988578     10.298575
  C      16.555689     29.516415      8.548127
  C      15.282532     29.753340      7.769652
  H      17.430459     29.624290      7.868578
  H      16.690805     30.300094      9.323543
  C      15.070221     29.132491      6.520074
  C      13.860826     29.281736      5.829506
  C      12.815824     30.074488      6.356575
  C      13.031159     30.693608      7.608123
  C      14.237648     30.531332      8.301240
  H      15.871933     28.517027      6.081136
  C      11.562711     30.322810      5.598751
  C      10.885328     29.313877      4.875259
  C      11.024394     31.628431      5.585619
  C       9.714659     29.591280      4.141781
  C       9.213162     30.914046      4.123538
  C       9.867853     31.914717      4.858762
  H      11.271364     28.280099      4.904889
  H      11.541296     32.431652      6.131436
  H       9.468120     32.941236      4.846153
  C       7.991841     31.226027      3.297705
  H       7.509268     32.160333      3.648348
  H       8.316338     31.432397      2.248412
  C       8.980373     28.524749      3.342531
  H       9.398076     28.520202      2.305846
  H       9.192706     27.513977      3.748268
  H      14.370227     31.013498      9.282749
  H      12.226453     31.296878      8.054956
  H      13.733332     28.807021      4.844301
324
Coordinates from ORCA-job input E -9763.440510032018
  C      -2.229678      9.059985      2.159927
  C      -3.490807      9.112969      2.790558
  C      -4.106220      7.950798      3.267372
  C      -3.476755      6.698113      3.133573
  C      -2.202156      6.645453      2.534802
  C      -1.588404      7.807683      2.053950
  H      -0.589039      7.751052      1.596282
  H      -1.682640      5.677549      2.452693
  H      -4.004809     10.082414      2.876974
  H      -5.097934      8.011731      3.742443
  C      -4.125183      5.455106      3.664498
  Cl     -3.647484      5.142358      5.396858
  H      -3.822203      4.556112      3.095441
  H      -5.228712      5.531775      3.658080
  C      -0.857257     11.693597     -0.219019
  C      -0.626742     12.776051      0.648033
  C      -1.361211     10.459901      0.224556
  C      -0.872784     12.614150      2.026177
  C      -1.620920     10.303378      1.613549
  H      -0.667656     11.830335     -1.296932
  C      -1.360504     11.378444      2.483527
  H      -1.552090     11.240124      3.560122
  C      -1.792482      9.412100     -0.793457
  C      -3.310938      9.367608     -0.849863
  H      -1.398765      8.407283     -0.548425
  H      -1.378044      9.688039     -1.785288
  C      -4.053456      8.236382     -0.467193
  C      -5.444427      8.319692     -0.342343
  C      -6.138638      9.531540     -0.561466
  C      -5.404952     10.660154     -1.012229
  C      -4.013199     10.540444     -1.163573
  H      -3.535709      7.300134     -0.208325
  H      -6.011347      7.442584      0.005526
  H      -3.444450     11.432377     -1.471102
  C      -7.595495      9.579522     -0.266356
  C      -8.480089      8.639625     -0.837665
  C      -9.844861      8.653073     -0.526149
  C     -10.372086      9.607314      0.365055
  C      -8.126651     10.526137      0.639987
  C      -9.490732     10.538493      0.949558
  H      -8.086663      7.896322     -1.547881
  H     -10.517612      7.912064     -0.986409
  H      -7.451387     11.246539      1.127082
  H      -9.880402     11.277789      1.667154
  C     -11.827163      9.600463      0.724346
  Cl    -12.144053      8.580601      2.203911
  H     -12.449281      9.172336     -0.083902
  H     -12.197850     10.614231      0.966576
  C      -0.653993     13.769096      2.976354
  C       0.358995     14.778524      2.493954
  H      -0.378215     13.393282      3.983433
  H      -1.621402     14.309515      3.118112
  C      -0.194494     14.119915      0.115284
  C       0.575721     14.955190      1.110968
  H      -1.114079     14.682728     -0.173352
  H       0.387361     13.999890     -0.821727
  C       1.068869     15.588987      3.398780
  C       1.950974     16.577249      2.951084
  C       1.468143     15.945307      0.671669
  C       2.156177     16.788054      1.568781
  H       1.598282     16.093175     -0.412161
  H       0.923428     15.439720      4.480782
  H       2.507508     17.182593      3.682330
  C       2.997511     17.900271      1.065762
  C       3.693869     17.811659     -0.160621
  C       4.381540     18.913522     -0.683289
  C       4.403996     20.150098     -0.008149
  C       3.738713     20.229421      1.231620
  H       3.702603     16.859554     -0.712054
  H       4.908620     18.815575     -1.645756
  C       3.058713     19.128590      1.760061
  H       3.698540     21.190461      1.766786
  H       2.510827     19.247373      2.705826
  C      -6.024557     12.012468     -1.312963
  C      -5.353677     13.152873     -0.564372
  H      -7.112581     12.000886     -1.098491
  H      -5.942921     12.213916     -2.403288
  C      -4.762785     12.950842      0.699733
  C      -4.078384     13.979301      1.353673
  C      -5.261514     14.440582     -1.127334
  C      -4.588740     15.477923     -0.467054
  C      -3.966973     15.267749      0.784326
  H      -4.784911     11.949595      1.155815
  H      -3.578223     13.762060      2.308196
  H      -5.713630     14.633111     -2.113881
  H      -4.538048     16.474381     -0.933204
  C      -3.164000     16.334379      1.437603
  C      -2.293053     17.112183      0.642583
  C      -1.473308     18.116619      1.174487
  C      -3.245814     16.624206      2.827779
  C      -2.366461     17.582188      3.362586
  C      -1.471400     18.315814      2.571950
  H      -2.256575     16.917740     -0.441497
  H      -2.428135     17.810888      4.439723
  C      -4.416314     16.181173      3.698881
  C      -5.412717     17.329050      3.702434
  H      -4.077879     15.966232      4.732499
  H      -4.892845     15.264848      3.304745
  C      -5.638918     18.133199      4.830326
  C      -6.396454     19.309949      4.719046
  C      -6.939540     19.721072      3.487175
  C      -6.744417     18.894984      2.344445
  C      -6.004060     17.714431      2.484651
  H      -5.191380     17.859698      5.799258
  H      -6.551136     19.946291      5.604289
  H      -5.821351     17.104729      1.586554
  C      -7.584009     21.058650      3.360937
  C      -8.927314     21.220634      2.971795
  C      -9.455730     22.498580      2.736580
  C      -8.660094     23.648234      2.894424
  C      -7.326969     23.489597      3.322186
  C      -6.800677     22.218136      3.555771
  H      -9.561964     20.332024      2.833497
  H      -5.746409     22.105224      3.849124
  H      -6.687559     24.378612      3.435824
  H     -10.504091     22.603878      2.414157
  C      -9.215754     25.016031      2.616443
  Cl     -8.270419     25.905652      1.335451
  H      -9.176505     25.667976      3.511358
  H     -10.262688     24.964921      2.263027
  C      -7.178259     19.325560      0.956295
  C      -6.594309     20.666239      0.546786
  H      -8.283665     19.387142      0.881495
  H      -6.869087     18.536961      0.236549
  C      -5.253439     21.002771      0.825825
  C      -4.764100     22.288001      0.554711
  C      -5.598318     23.267497     -0.025194
  C      -7.409727     21.633225     -0.065983
  C      -6.921618     22.909828     -0.356839
  H      -4.591093     20.258253      1.296406
  H      -3.719394     22.538951      0.798559
  H      -8.464243     21.394621     -0.276722
  H      -7.592462     23.671997     -0.779727
  C      -5.164568     24.669013     -0.244127
  C      -4.699518     25.456770      0.826341
  C      -4.444778     26.830716      0.673890
  C      -5.315342     25.279075     -1.507341
  C      -5.007302     26.631207     -1.681651
  C      -4.588325     27.425015     -0.598743
  H      -4.601134     24.995649      1.822426
  H      -5.669163     24.676672     -2.357765
  H      -5.108551     27.090864     -2.678157
  C      -4.119049     27.695130      1.872832
  C      -3.318969     28.932940      1.537237
  C      -3.391561     29.486914      0.242366
  C      -4.341660     28.904430     -0.774747
  H      -5.317846     29.441162     -0.688158
  H      -3.986313     29.116921     -1.804439
  H      -3.595870     27.100209      2.650410
  H      -5.086378     28.002029      2.340280
  C      -2.509411     29.562181      2.498611
  C      -2.591535     30.597922     -0.064492
  C      -1.763130     31.214570      0.890937
  C      -1.745514     30.709172      2.218972
  H      -2.466594     29.134861      3.514629
  H      -2.614777     31.011288     -1.086018
  C      -0.841427     32.298684      0.457985
  C       0.165375     31.997501     -0.484826
  C       1.147873     32.936437     -0.810606
  C      -0.883632     33.601316      0.997095
  C       0.102621     34.541083      0.673625
  C       1.147995     34.211237     -0.211586
  H       0.204054     30.986767     -0.917985
  H       1.954528     32.664614     -1.509471
  H      -1.692188     33.873463      1.692293
  H       0.074593     35.543063      1.130394
  C       2.293300     35.149334     -0.431204
  Cl      3.673197     34.748712      0.702080
  H       2.021358     36.201050     -0.223824
  H       2.710186     35.073729     -1.453038
  C      -0.869090     31.301076      3.315734
  C      -0.592874     18.975062      0.294744
  C      -0.522500     19.320463      3.173698
  C      -0.259633     20.504114      2.271293
  H       0.442004     18.793080      3.366661
  H      -0.884413     19.658285      4.166142
  C      -0.331089     20.347961      0.871980
  H      -1.022995     19.051023     -0.724883
  H       0.392624     18.467303      0.169979
  C      -0.080270     21.462336      0.050830
  C       0.096657     21.755109      2.796306
  C       0.397304     22.859074      1.976593
  C       0.295152     22.717241      0.565593
  H      -0.138687     21.337017     -1.043344
  H       0.155998     21.883171      3.889396
  C       0.883304     24.109036      2.620212
  C       2.032040     24.076571      3.438293
  C       0.240597     25.350274      2.439983
  C       0.734439     26.513546      3.043855
  C       1.877127     26.480877      3.870890
  C       2.519111     25.239387      4.049074
  H       3.422958     25.182224      4.677073
  H       2.567385     23.123455      3.570080
  H      -0.670155     25.406732      1.822985
  H       0.212353     27.465186      2.866406
  C       2.370272     27.713481      4.624966
  C       0.895492     29.594542      3.932560
  C       1.576251     31.448495      2.564375
  C       0.558033     30.786828      3.275342
  H      -1.318946     31.038867      4.294475
  H      -0.860388     32.404879      3.252659
  C       2.183025     29.023515      3.892054
  C       3.211566     29.704967      3.180752
  C       2.863656     30.911157      2.522818
  H       1.376434     32.399129      2.050974
  H       3.634198     31.454128      1.955923
  H       0.121583     29.084164      4.529521
  H       3.425924     27.564017      4.921721
  H       1.794847     27.768358      5.576260
  C       4.649682     29.315555      3.191495
  C       5.139800     27.990298      3.116639
  C       6.518052     27.724939      3.187409
  C       7.460541     28.765929      3.296813
  C       6.985213     30.095140      3.307924
  C       5.609281     30.347782      3.286096
  H       4.440907     27.151172      2.988779
  H       6.865203     26.679894      3.140911
  H       5.268118     31.391070      3.365829
  C       5.094523     21.359388     -0.614153
  C       4.412305     22.668351     -0.261341
  H       5.095925     21.242136     -1.719331
  H       6.162303     21.371063     -0.314048
  C       5.040510     23.745068      0.420811
  C       4.302435     24.932998      0.621770
  C       2.943643     25.017928      0.294868
  C       3.055599     22.786890     -0.601292
  C       2.285182     23.912192     -0.275123
  H       2.560498     21.921828     -1.071751
  H       4.790095     25.779326      1.129087
  H       2.378914     25.926663      0.553332
  C       0.771886     23.812210     -0.383740
  H       0.472100     23.543543     -1.417613
  H       0.309534     24.790807     -0.156222
  C       6.400906     23.620120      1.001273
  C       6.722766     22.493932      1.791787
  C       7.994150     22.330596      2.341092
  C       9.004012     23.290641      2.136527
  C       8.672324     24.443284      1.398291
  C       7.394663     24.607845      0.838590
  H       5.961016     21.725028      1.986166
  H       8.201561     21.427741      2.927530
  H       9.438714     25.217801      1.229997
  H       7.172604     25.505731      0.241209
  C      10.416382     23.049012      2.639120
  C      10.548787     22.799911      4.134051
  H      11.040819     23.926779      2.377843
  H      10.836372     22.196143      2.070974
  C      10.780737     23.917067      4.958158
  C      10.906001     23.814977      6.347851
  C      10.799131     22.547913      6.961443
  C      10.549061     21.429935      6.158334
  C      10.420232     21.525060      4.754387
  C      10.064935     20.292536      3.997546
  H      10.473354     20.435280      6.626092
  H      10.877598     24.909131      4.485855
  C      10.781890     19.841428      2.870416
  C      10.309388     18.768981      2.101095
  C       9.122441     18.097636      2.447975
  C       8.445673     18.493316      3.619216
  C       8.911770     19.566734      4.381506
  H      11.719367     20.341604      2.585951
  H      10.868719     18.453286      1.206102
  H       7.516732     17.977121      3.907756
  H       8.343938     19.899914      5.263641
  C       8.547188     17.027255      1.568669
  Cl      7.053945     17.627896      0.710078
  H       8.224934     16.140354      2.147679
  H       9.262471     16.705846      0.788530
  C      11.002695     22.467974      8.461432
  C      12.144770     23.365041      8.888366
  H      11.166988     21.422807      8.790289
  H      10.066910     22.810739      8.966126
  C      12.259462     24.622610      8.254818
  C      11.210920     24.999133      7.232860
  H      11.524228     25.880994      6.638950
  H      10.278829     25.300883      7.768806
  C      13.113790     22.999000      9.836839
  C      14.190794     23.846184     10.131607
  C      14.348486     25.082872      9.466595
  C      13.351463     25.447275      8.532615
  H      13.438650     26.385802      7.967112
  H      14.926393     23.528152     10.884675
  H      13.032073     22.026512     10.348148
  C      15.528404     25.960446      9.672938
  C      16.712704     25.524374     10.304345
  C      17.817621     26.378235     10.402102
  C      15.517715     27.276328      9.163855
  C      16.626964     28.126323      9.201737
  C      17.807917     27.672698      9.846872
  H      18.731620     26.022420     10.904004
  H      16.790199     24.502625     10.702884
  H      14.602692     27.661024      8.700169
  C      19.024491     28.537929      9.954170
  Cl     18.815422     29.876671     11.186546
  H      19.268366     29.051586      9.004340
  H      19.907134     27.958998     10.282571
  C      16.558009     29.497728      8.542162
  C      15.283573     29.742489      7.768338
  H      17.431496     29.604544      7.860823
  H      16.698796     30.278353      9.319717
  C      15.063494     29.124882      6.518520
  C      13.850876     29.278750      5.834506
  C      12.811595     30.074948      6.367752
  C      13.034003     30.688860      7.620624
  C      14.243289     30.521539      8.307279
  H      15.860003     28.505099      6.076212
  C      11.553366     30.325320      5.618952
  C      10.870312     29.316525      4.901317
  C      11.019802     31.632736      5.601823
  C       9.698412     29.593816      4.171294
  C       9.200564     30.916987      4.149796
  C       9.861358     31.919143      4.877836
  H      11.255727     28.283502      4.929586
  H      11.544007     32.437397      6.138403
  H       9.464032     32.946567      4.862655
  C       7.978397     31.229866      3.325835
  H       7.500453     32.168198      3.671989
  H       8.300959     31.428350      2.274412
  C       8.957947     28.526267      3.380502
  H       9.371535     28.515452      2.342196
  H       9.168450     27.516754      3.790370
  H      14.380745     30.997685      9.291054
  H      12.233776     31.295021      8.071486
  H      13.718068     28.809331      4.847482
324
Coordinates from ORCA-job input E -9763.440555231939
  C      -2.220360      9.060101      2.147745
  C      -3.477417      9.106216      2.786867
  C      -4.086352      7.939681      3.261333
  C      -3.454041      6.689583      3.117173
  C      -2.182943      6.643791      2.510448
  C      -1.575782      7.810323      2.031846
  H      -0.579287      7.759319      1.567330
  H      -1.660913      5.677956      2.420379
  H      -3.994642     10.073331      2.880062
  H      -5.075027      7.995115      3.743349
  C      -4.096517      5.441764      3.643985
  Cl     -3.609022      5.119738      5.371859
  H      -3.794357      4.547000      3.067867
  H      -5.200254      5.515809      3.643601
  C      -0.863723     11.704916     -0.226816
  C      -0.632002     12.784434      0.643416
  C      -1.364634     10.469180      0.213980
  C      -0.870717     12.616570      2.022127
  C      -1.618030     10.307021      1.603516
  H      -0.682595     11.847333     -1.305459
  C      -1.354121     11.378375      2.476734
  H      -1.538551     11.234736      3.553898
  C      -1.793519      9.422391     -0.806307
  C      -3.311908      9.374150     -0.862045
  H      -1.397439      8.417879     -0.563830
  H      -1.380166      9.701451     -1.797716
  C      -4.051049      8.240213     -0.480663
  C      -5.441896      8.320021     -0.352412
  C      -6.139454      9.530653     -0.567581
  C      -5.409407     10.661819     -1.017806
  C      -4.017616     10.545828     -1.172221
  H      -3.530729      7.304661     -0.224542
  H      -6.005869      7.440968     -0.004565
  H      -3.451589     11.439928     -1.478543
  C      -7.595424      9.574952     -0.267414
  C      -8.480104      8.634156     -0.837102
  C      -9.844058      8.645188     -0.521806
  C     -10.370295      9.597577      0.371984
  C      -8.125844     10.520821      0.640118
  C      -9.489150     10.530982      0.953229
  H      -8.087874      7.893480     -1.550714
  H     -10.516460      7.902035     -0.979101
  H      -7.451122     11.244756      1.122729
  H      -9.877698     11.268234      1.673530
  C     -11.824505      9.588492      0.734972
  Cl    -12.136426      8.568730      2.215551
  H     -12.447891      9.159350     -0.071769
  H     -12.196071     10.601835      0.977669
  C      -0.650135     13.768313      2.975683
  C       0.357468     14.782496      2.492176
  H      -0.368111     13.389473      3.979878
  H      -1.618362     14.305290      3.124443
  C      -0.205123     14.131004      0.113780
  C       0.567418     14.964638      1.108850
  H      -1.127454     14.691963     -0.168674
  H       0.372657     14.015659     -0.826349
  C       1.069222     15.591636      3.396628
  C       1.947462     16.582942      2.948391
  C       1.456445     15.957386      0.669039
  C       2.146295     16.798647      1.565956
  H       1.580096     16.110541     -0.414847
  H       0.928699     15.438557      4.478745
  H       2.504838     17.188041      3.679196
  C       2.987403     17.910956      1.063359
  C       3.678746     17.825474     -0.165920
  C       4.368796     18.927135     -0.685797
  C       4.399596     20.159924     -0.004342
  C       3.740188     20.235434      1.238607
  H       3.682909     16.875589     -0.721255
  H       4.891047     18.832159     -1.651263
  C       3.057208     19.135104      1.764061
  H       3.707345     21.193401      1.778876
  H       2.515007     19.250730      2.713727
  C      -6.033042     12.013207     -1.314474
  C      -5.361339     13.153942     -0.567194
  H      -7.120175     11.998976     -1.095664
  H      -5.956392     12.216249     -2.404872
  C      -4.767393     12.952084      0.695440
  C      -4.082377     13.980878      1.348277
  C      -5.272079     14.442056     -1.129659
  C      -4.598778     15.479674     -0.470502
  C      -3.972625     15.269336      0.778896
  H      -4.788035     11.950640      1.151187
  H      -3.578682     13.762703      2.300727
  H      -5.728390     14.635191     -2.114149
  H      -4.549006     16.476032     -0.936855
  C      -3.170394     16.337124      1.431353
  C      -2.301886     17.117139      0.635857
  C      -1.481413     18.120955      1.167699
  C      -3.248204     16.623845      2.822368
  C      -2.368566     17.581871      3.356875
  C      -1.476924     18.318700      2.565375
  H      -2.265313     16.923025     -0.448258
  H      -2.428960     17.809428      4.434321
  C      -4.413791     16.174609      3.697038
  C      -5.412666     17.320082      3.706421
  H      -4.070782     15.958108      4.728822
  H      -4.888964     15.257788      3.302250
  C      -5.636263     18.122552      4.836072
  C      -6.394185     19.299410      4.728143
  C      -6.939926     19.712108      3.497932
  C      -6.747228     18.887789      2.353988
  C      -6.007474     17.706630      2.490874
  H      -5.186124     17.847899      5.803469
  H      -6.547989     19.933950      5.614836
  H      -5.826251     17.098594      1.591317
  C      -7.581679     21.051011      3.373264
  C      -8.925191     21.216561      2.986060
  C      -9.450299     22.496171      2.751709
  C      -8.651109     23.643638      2.908357
  C      -7.317718     23.481197      3.333959
  C      -6.794648     22.208300      3.566383
  H      -9.562392     20.329706      2.848154
  H      -5.739766     22.092270      3.856326
  H      -6.675514     24.368239      3.446961
  H     -10.498725     22.604416      2.430491
  C      -9.203963     25.013488      2.634727
  Cl     -8.256495     25.906217      1.357148
  H      -9.163511     25.662510      3.531712
  H     -10.250815     24.965919      2.280651
  C      -7.183307     19.320924      0.967715
  C      -6.595270     20.659877      0.558338
  H      -8.288669     19.386770      0.895614
  H      -6.878906     18.531855      0.246450
  C      -5.252349     20.991498      0.833961
  C      -4.758845     22.274947      0.561455
  C      -5.590662     23.256811     -0.017630
  C      -7.409271     21.630274     -0.050781
  C      -6.916977     22.904811     -0.343539
  H      -4.591837     20.245390      1.304796
  H      -3.711173     22.520901      0.798383
  H      -8.465499     21.395527     -0.257360
  H      -7.585225     23.669593     -0.765808
  C      -5.153775     24.657289     -0.238927
  C      -4.694840     25.449458      0.831168
  C      -4.440282     26.823061      0.674287
  C      -5.295652     25.261270     -1.505877
  C      -4.987160     26.612662     -1.684239
  C      -4.577368     27.411512     -0.601815
  H      -4.600369     24.991923      1.829203
  H      -5.640952     24.653994     -2.356329
  H      -5.083831     27.068375     -2.683001
  C      -4.123572     27.694733      1.870662
  C      -3.318825     28.929461      1.533251
  C      -3.385875     29.477111      0.235459
  C      -4.333770     28.890888     -0.781223
  H      -5.311257     29.425548     -0.696181
  H      -3.978381     29.102009     -1.811136
  H      -3.607820     27.104290      2.656379
  H      -5.094861     28.005263      2.327463
  C      -2.511266     29.562222      2.494312
  C      -2.583401     30.584895     -0.074724
  C      -1.755034     31.203811      0.878817
  C      -1.743884     30.706602      2.211029
  H      -2.474849     29.142019      3.513548
  H      -2.602917     30.993012     -1.098361
  C      -0.828152     32.282052      0.438759
  C       0.182187     31.968041     -0.496639
  C       1.175449     32.896909     -0.820603
  C      -0.862121     33.587825      0.970958
  C       0.135750     34.517129      0.650344
  C       1.185117     34.173721     -0.225237
  H       0.215357     30.954745     -0.924101
  H       1.984917     32.613706     -1.511602
  H      -1.669797     33.869380      1.663411
  H       0.114598     35.520704      1.103953
  C       2.343314     35.099206     -0.438216
  Cl      3.714680     34.689144      0.703371
  H       2.081259     36.154001     -0.233872
  H       2.765567     35.018378     -1.457437
  C      -0.870172     31.302954      3.307687
  C      -0.603978     18.981433      0.287312
  C      -0.527404     19.323110      3.166852
  C      -0.265157     20.507553      2.265467
  H       0.437558     18.795773      3.358678
  H      -0.888244     19.660006      4.160047
  C      -0.340065     20.353060      0.866135
  H      -1.036566     19.059052     -0.731161
  H       0.381220     18.473707      0.159430
  C      -0.089399     21.467582      0.045735
  C       0.092248     21.758255      2.791091
  C       0.392218     22.863048      1.971832
  C       0.287777     22.721677      0.560320
  H      -0.150061     21.343151     -1.048422
  H       0.152669     21.885529      3.884223
  C       0.878668     24.113122      2.615087
  C       2.026352     24.080216      3.434810
  C       0.235980     25.354594      2.435780
  C       0.730114     26.517519      3.040116
  C       1.872274     26.484130      3.867861
  C       2.513133     25.242400      4.046514
  H       3.416898     25.184665      4.674600
  H       2.560347     23.127039      3.569009
  H      -0.676804     25.410694      1.821550
  H       0.208244     27.469187      2.862990
  C       2.366822     27.715491      4.622382
  C       0.893349     29.595891      3.927538
  C       1.577869     31.454146      2.569244
  C       0.557545     30.790064      3.273017
  H      -1.322011     31.043511      4.286278
  H      -0.863341     32.406531      3.241046
  C       2.181556     29.025768      3.890007
  C       3.212782     29.709592      3.184101
  C       2.865960     30.918729      2.530769
  H       1.379876     32.406047      2.059892
  H       3.636019     31.464558      1.966009
  H       0.117428     29.082819      4.519527
  H       3.421978     27.564945      4.920130
  H       1.790770     27.770763      5.573358
  C       4.651493     29.319785      3.193860
  C       5.143392     27.995058      3.110862
  C       6.522118     27.730089      3.182315
  C       7.463511     28.771440      3.299740
  C       6.986861     30.100215      3.318071
  C       5.610776     30.351680      3.296667
  H       4.446386     27.156046      2.972667
  H       6.870308     26.684726      3.130806
  H       5.269412     31.394337      3.382442
  C       5.093209     21.369113     -0.606514
  C       4.407934     22.678809     -0.260651
  H       5.102731     21.250691     -1.711537
  H       6.158690     21.381770     -0.298502
  C       5.033504     23.761413      0.415553
  C       4.291858     24.949388      0.608331
  C       2.933508     25.028708      0.278761
  C       3.050873     22.791765     -0.601028
  C       2.277824     23.917255     -0.282087
  H       2.557474     21.921807     -1.064131
  H       4.777181     25.804278      1.104374
  H       2.365593     25.936120      0.533486
  C       0.764736     23.814890     -0.391329
  H       0.465805     23.543087     -1.424647
  H       0.301271     24.793701     -0.167236
  C       6.391762     23.638922      1.003029
  C       6.708441     22.515365      1.799844
  C       7.977885     22.350266      2.353715
  C       8.991623     23.305763      2.147110
  C       8.665287     24.455471      1.401442
  C       7.389489     24.621934      0.837493
  H       5.944348     21.748567      1.993614
  H       8.180780     21.448925      2.944153
  H       9.434386     25.227001      1.231860
  H       7.173708     25.515374      0.231224
  C      10.403910     23.061884      2.650596
  C      10.537742     22.810587      4.145702
  H      11.028719     23.939714      2.390293
  H      10.823465     22.210286      2.080534
  C      10.773641     23.927265      4.969295
  C      10.898194     23.825991      6.359159
  C      10.787694     22.560112      6.974070
  C      10.533621     21.442271      6.171849
  C      10.405144     21.536364      4.767470
  C      10.040703     20.304873      4.013409
  H      10.456228     20.448193      6.640526
  H      10.873114     24.918707      4.496291
  C      10.750109     19.849555      2.883166
  C      10.269154     18.778552      2.117185
  C       9.081695     18.111905      2.471392
  C       8.414902     18.508785      3.647886
  C       8.887650     19.582963      4.404977
  H      11.688966     20.344435      2.594318
  H      10.820535     18.462301      1.217449
  H       7.482206     18.000655      3.938664
  H       8.327761     19.916566      5.291994
  C       8.496913     17.043299      1.596697
  Cl      6.999040     17.649378      0.750194
  H       8.175667     16.157707      2.178221
  H       9.205123     16.719657      0.811006
  C      10.989203     22.482569      8.474831
  C      12.134774     23.376050      8.901354
  H      11.148417     21.437411      8.806081
  H      10.054274     22.830206      8.977867
  C      12.254752     24.631086      8.264252
  C      11.206787     25.009616      7.243192
  H      11.522069     25.889704      6.649091
  H      10.275813     25.313876      7.779556
  C      13.103928     23.008570      9.849280
  C      14.184794     23.852772     10.140558
  C      14.345758     25.088126      9.473341
  C      13.348947     25.453303      8.539853
  H      13.438918     26.389313      7.970756
  H      14.919248     23.534401     10.894591
  H      13.021152     22.036349     10.360899
  C      15.529639     25.962190      9.674484
  C      16.711792     25.525033     10.308914
  C      17.820837     26.374109     10.401253
  C      15.525525     27.275180      9.157076
  C      16.639606     28.119635      9.188259
  C      17.818128     27.664417      9.836505
  H      18.733151     26.016746     10.905115
  H      16.784190     24.506060     10.715490
  H      14.613321     27.661180      8.688949
  C      19.039392     28.523772      9.937236
  Cl     18.836205     29.874984     11.156746
  H      19.287230     29.027080      8.982909
  H      19.918337     27.942869     10.272030
  C      16.577371     29.487951      8.520917
  C      15.301252     29.735908      7.751035
  H      17.448823     29.584831      7.835557
  H      16.725933     30.272294      9.293330
  C      15.074248     29.118075      6.502559
  C      13.858385     29.273435      5.824394
  C      12.821934     30.069601      6.363384
  C      13.051821     30.683812      7.614761
  C      14.264298     30.515712      8.295105
  H      15.867710     28.497116      6.056450
  C      11.561145     30.324546      5.620622
  C      10.875333     29.318919      4.901693
  C      11.026157     31.631468      5.611928
  C       9.701216     29.597939      4.176914
  C       9.202278     30.920546      4.162744
  C       9.864744     31.920001      4.893358
  H      11.259755     28.286042      4.925358
  H      11.550397     32.434009      6.151653
  H       9.466958     32.947313      4.883610
  C       7.978089     31.236657      3.343332
  H       7.498858     32.171482      3.697227
  H       8.298298     31.444041      2.292885
  C       8.960860     28.532228      3.383642
  H       9.375301     28.522869      2.345668
  H       9.171002     27.521984      3.791972
  H      14.406652     30.990925      9.278641
  H      12.254325     31.289922      8.070499
  H      13.719700     28.802405      4.838957
324
Coordinates from ORCA-job input E -9763.440634574368
  C      -2.212594      9.061431      2.145549
  C      -3.469097      9.102922      2.786027
  C      -4.073146      7.934138      3.261297
  C      -3.436515      6.686324      3.116404
  C      -2.165769      6.645248      2.508605
  C      -1.563499      7.813984      2.029247
  H      -0.567138      7.766700      1.564057
  H      -1.640372      5.681328      2.417670
  H      -3.989680     10.068106      2.880405
  H      -5.061716      7.985919      3.743915
  C      -4.073527      5.436276      3.644578
  Cl     -3.582267      5.116685      5.371849
  H      -3.768841      4.542444      3.068366
  H      -5.177512      5.506180      3.645875
  C      -0.865298     11.710085     -0.230037
  C      -0.635307     12.790007      0.640239
  C      -1.362997     10.473100      0.210964
  C      -0.873755     12.621735      2.018930
  C      -1.614896     10.310219      1.600675
  H      -0.683699     11.852592     -1.308569
  C      -1.353891     11.382381      2.473682
  H      -1.538154     11.238487      3.550833
  C      -1.790977      9.425551     -0.808933
  C      -3.309397      9.374691     -0.863147
  H      -1.393065      8.421739     -0.566611
  H      -1.378910      9.705133     -1.800717
  C      -4.046092      8.239182     -0.481780
  C      -5.436955      8.316359     -0.352111
  C      -6.136933      9.525846     -0.565762
  C      -5.409396     10.658672     -1.016004
  C      -4.017526     10.545331     -1.171766
  H      -3.523803      7.304470     -0.226656
  H      -5.999064      7.435982     -0.004693
  H      -3.453429     11.440574     -1.478255
  C      -7.592756      9.567037     -0.264330
  C      -8.476180      8.625319     -0.834478
  C      -9.839853      8.633254     -0.517744
  C     -10.367061      9.583507      0.377764
  C      -8.124022     10.510243      0.645468
  C      -9.487004     10.517300      0.959996
  H      -8.083117      7.886016     -1.549036
  H     -10.511456      7.890017     -0.976050
  H      -7.449992     11.233991      1.129291
  H      -9.876341     11.252990      1.681452
  C     -11.820831      9.570925      0.742510
  Cl    -12.128553      8.550015      2.223272
  H     -12.444140      9.140477     -0.063572
  H     -12.194526     10.583290      0.985965
  C      -0.655822     13.773853      2.972591
  C       0.349898     14.789815      2.489221
  H      -0.373131     13.395537      3.976782
  H      -1.625055     14.308948      3.121160
  C      -0.210908     14.137361      0.110618
  C       0.560035     14.972203      1.105990
  H      -1.134097     14.696928     -0.171973
  H       0.367321     14.023047     -0.829334
  C       1.059728     15.600179      3.394013
  C       1.936378     16.592976      2.946198
  C       1.447386     15.966575      0.666564
  C       2.135781     16.808603      1.563908
  H       1.572442     16.119238     -0.417199
  H       0.918567     15.447144      4.476042
  H       2.493112     17.198506      3.677035
  C       2.974891     17.922699      1.062048
  C       3.665926     17.839377     -0.167456
  C       4.355179     18.942202     -0.685769
  C       4.385795     20.173706     -0.002135
  C       3.725420     20.247650      1.240433
  H       3.669686     16.890586     -0.724627
  H       4.877843     18.848903     -1.651121
  C       3.042512     19.146412      1.763864
  H       3.691245     21.205187      1.781825
  H       2.498988     19.260602      2.712849
  C      -6.035720     12.009222     -1.310974
  C      -5.365072     13.150461     -0.563547
  H      -7.122551     11.992935     -1.090916
  H      -5.960579     12.213276     -2.401269
  C      -4.769662     12.948543      0.698352
  C      -4.085747     13.977909      1.351432
  C      -5.278523     14.439177     -1.124999
  C      -4.606388     15.477371     -0.465580
  C      -3.978977     15.267138      0.783198
  H      -4.788312     11.946755      1.153357
  H      -3.581481     13.760082      2.303590
  H      -5.735953     14.632294     -2.108959
  H      -4.559290     16.474324     -0.930882
  C      -3.177090     16.335708      1.434922
  C      -2.313384     17.119096      0.637612
  C      -1.494646     18.125320      1.167716
  C      -3.251953     16.621175      2.826425
  C      -2.374005     17.581824      3.358891
  C      -1.486778     18.322049      2.565452
  H      -2.279810     16.926366     -0.446832
  H      -2.431708     17.808120      4.436747
  C      -4.415429     16.170213      3.703134
  C      -5.414519     17.315541      3.714481
  H      -4.070393     15.953602      4.734200
  H      -4.890780     15.253358      3.308680
  C      -5.635339     18.119104      4.843891
  C      -6.392235     19.296718      4.736305
  C      -6.938722     19.709479      3.506455
  C      -6.750128     18.883147      2.363230
  C      -6.012288     17.700923      2.500057
  H      -5.184666     17.844233      5.810970
  H      -6.542307     19.933052      5.622333
  H      -5.834966     17.090848      1.601169
  C      -7.577765     21.049555      3.380690
  C      -8.920868     21.217521      2.993016
  C      -9.442849     22.497944      2.756081
  C      -8.640827     23.643769      2.910311
  C      -7.307882     23.479013      3.336429
  C      -6.788006     22.205347      3.571717
  H      -9.560100     20.331920      2.856625
  H      -5.733337     22.087404      3.861588
  H      -6.663539     24.364767      3.447444
  H     -10.490982     22.608091      2.434587
  C      -9.190800     25.014263      2.633643
  Cl     -8.237779     25.904711      1.358959
  H      -9.152974     25.663820      3.530392
  H     -10.236505     24.967658      2.276046
  C      -7.185666     19.316205      0.976824
  C      -6.591374     20.651939      0.565590
  H      -8.290708     19.387290      0.905396
  H      -6.885352     18.524939      0.256289
  C      -5.247216     20.978360      0.841762
  C      -4.747829     22.259172      0.566903
  C      -5.575096     23.243144     -0.014919
  C      -7.400701     21.624456     -0.046342
  C      -6.902548     22.896131     -0.341471
  H      -4.589998     20.230184      1.313936
  H      -3.699577     22.501546      0.805355
  H      -8.457798     21.393970     -0.253172
  H      -7.566918     23.662850     -0.766349
  C      -5.132438     24.641155     -0.240822
  C      -4.682001     25.439002      0.828579
  C      -4.425838     26.811614      0.665995
  C      -5.263947     25.237922     -1.512282
  C      -4.953432     26.588178     -1.695858
  C      -4.552386     27.392829     -0.614537
  H      -4.597613     24.987365      1.830222
  H      -5.604578     24.626347     -2.361525
  H      -5.041568     27.038291     -2.697923
  C      -4.119439     27.690515      1.859800
  C      -3.309921     28.921938      1.521736
  C      -3.366295     29.461938      0.220213
  C      -4.308195     28.871391     -0.799489
  H      -5.286290     29.406087     -0.722082
  H      -3.946971     29.078074     -1.828223
  H      -3.611946     27.104504      2.654153
  H      -5.094682     28.004974      2.305356
  C      -2.508557     29.558972      2.485149
  C      -2.559709     30.566525     -0.090759
  C      -1.738539     31.190081      0.865856
  C      -1.737837     30.700760      2.200843
  H      -2.480211     29.144695      3.507056
  H      -2.570970     30.968452     -1.116985
  C      -0.806451     32.264659      0.428638
  C       0.216380     31.942779     -0.490151
  C       1.211828     32.870225     -0.810628
  C      -0.851052     33.575870      0.946042
  C       0.148651     34.504041      0.628501
  C       1.210548     34.153178     -0.228674
  H       0.256256     30.925497     -0.907444
  H       2.031559     32.581385     -1.487028
  H      -1.670114     33.863407      1.622475
  H       0.119865     35.512146      1.071491
  C       2.369030     35.078881     -0.436265
  Cl      3.723969     34.683611      0.730176
  H       2.102307     36.135376     -0.247452
  H       2.806648     34.986990     -1.448012
  C      -0.870525     31.303385      3.299323
  C      -0.621932     18.988053      0.284836
  C      -0.539158     19.328912      3.165723
  C      -0.278143     20.512917      2.263341
  H       0.426395     18.803461      3.359378
  H      -0.901269     19.666617      4.158206
  C      -0.356306     20.359068      0.864202
  H      -1.059507     19.066993     -0.731410
  H       0.362935     18.481170      0.151328
  C      -0.106526     21.473877      0.043602
  C       0.082175     21.763032      2.788432
  C       0.381462     22.867811      1.969032
  C       0.272995     22.727387      0.557797
  H      -0.169269     21.349776     -1.050459
  H       0.145791     21.889697      3.881442
  C       0.871043     24.116648      2.612228
  C       2.019877     24.081946      3.430282
  C       0.230363     25.359133      2.433453
  C       0.726574     26.521262      3.037836
  C       1.869193     26.486167      3.865065
  C       2.508826     25.243372      4.042096
  H       3.413009     25.184085      4.669406
  H       2.553098     23.127970      3.563020
  H      -0.681823     25.417047      1.818387
  H       0.205709     27.473521      2.861039
  C       2.363936     27.716271      4.622157
  C       0.892139     29.597937      3.925637
  C       1.582145     31.460749      2.575896
  C       0.558418     30.793297      3.272036
  H      -1.326382     31.046524      4.276777
  H      -0.866183     32.406720      3.228531
  C       2.180754     29.028533      3.892312
  C       3.214612     29.714661      3.192653
  C       2.870670     30.926021      2.542084
  H       1.386989     32.415199      2.069545
  H       3.642681     31.473644      1.981792
  H       0.113920     29.083288      4.513189
  H       3.418574     27.564471      4.921338
  H       1.786499     27.770353      5.572383
  C       4.652938     29.324156      3.205744
  C       5.143373     27.999243      3.121449
  C       6.521563     27.732940      3.193329
  C       7.464283     28.772700      3.312623
  C       6.989355     30.101909      3.332032
  C       5.613354     30.354933      3.310479
  H       4.445583     27.161068      2.981861
  H       6.868381     26.687788      3.140273
  H       5.273125     31.398040      3.395198
  C       5.081204     21.383243     -0.600822
  C       4.392469     22.691913     -0.258319
  H       5.096585     21.265079     -1.705787
  H       6.144920     21.397063     -0.287042
  C       5.015679     23.777551      0.414575
  C       4.272903     24.964837      0.602596
  C       2.914414     25.041383      0.272256
  C       3.035230     22.801428     -0.599453
  C       2.260440     23.927074     -0.285083
  H       2.543263     21.929204     -1.059760
  H       4.757022     25.820282      1.098081
  H       2.345384     25.949693      0.521565
  C       0.747528     23.821484     -0.393941
  H       0.448794     23.549157     -1.427176
  H       0.281914     24.799300     -0.169713
  C       6.373384     23.659164      1.003830
  C       6.687897     22.542663      1.811147
  C       7.956686     22.381028      2.367271
  C       8.971930     23.332971      2.151790
  C       8.647245     24.476917      1.396773
  C       7.371786     24.640179      0.831177
  H       5.922104     21.779380      2.011895
  H       8.158140     21.485022      2.966101
  H       9.417484     25.245838      1.220661
  H       7.156514     25.529724      0.219057
  C      10.384233     23.090133      2.655496
  C      10.517330     22.834351      4.149496
  H      11.008014     23.969540      2.398125
  H      10.805344     22.240862      2.082818
  C      10.753715     23.948394      4.976568
  C      10.878752     23.842462      6.365923
  C      10.767299     22.574443      6.976586
  C      10.513221     21.459347      6.170773
  C      10.385122     21.558070      4.766720
  C      10.026576     20.327671      4.008171
  H      10.435824     20.463783      6.636242
  H      10.854429     24.941168      4.506631
  C      10.738870     19.879851      2.876712
  C      10.264111     18.809000      2.106797
  C       9.079863     18.134969      2.457699
  C       8.408273     18.526708      3.633195
  C       8.875674     19.599808      4.395107
  H      11.674424     20.381692      2.589108
  H      10.819401     18.496654      1.208114
  H       7.479356     18.011201      3.923046
  H       8.311029     19.929936      5.280419
  C       8.500544     17.067313      1.578333
  Cl      7.006562     17.674768      0.724608
  H       8.175919     16.181042      2.156794
  H       9.212449     16.745095      0.795486
  C      10.970298     22.491761      8.476720
  C      12.119848     23.379971      8.902897
  H      11.126194     21.445235      8.805135
  H      10.037505     22.842102      8.981787
  C      12.241152     24.637402      8.270417
  C      11.190418     25.022347      7.254048
  H      11.504856     25.905058      6.662674
  H      10.261232     25.324941      7.794463
  C      13.091024     23.005428      9.845818
  C      14.175916     23.844487     10.136103
  C      14.339240     25.081322      9.472505
  C      13.339853     25.454174      8.544435
  H      13.430730     26.392352      7.979127
  H      14.912771     23.519896     10.885106
  H      13.006035     22.032103     10.354960
  C      15.528265     25.948839      9.671335
  C      16.709649     25.505476     10.303235
  C      17.823089     26.349081     10.393372
  C      15.529672     27.261829      9.154364
  C      16.647638     28.100834      9.183641
  C      17.825342     27.639749      9.829257
  H      18.734526     25.987378     10.895693
  H      16.777893     24.486028     10.709286
  H      14.618182     27.652590      8.689024
  C      19.050986     28.493120      9.927446
  Cl     18.857469     29.844373     11.148473
  H      19.298770     28.996005      8.972891
  H      19.927974     27.907769     10.259576
  C      16.590318     29.469355      8.516181
  C      15.313785     29.722190      7.748439
  H      17.460976     29.561803      7.829217
  H      16.743662     30.253179      9.288126
  C      15.083209     29.106575      6.499565
  C      13.866341     29.265178      5.823977
  C      12.832567     30.062872      6.365766
  C      13.066257     30.675581      7.617231
  C      14.279789     30.504280      8.295024
  H      15.874648     28.484828      6.051004
  C      11.569822     30.319001      5.626674
  C      10.880997     29.314319      4.909025
  C      11.036248     31.626503      5.619770
  C       9.705012     29.595180      4.187359
  C       9.207406     30.918419      4.175337
  C       9.873193     31.916606      4.904617
  H      11.265033     28.280929      4.930534
  H      11.563072     32.428399      6.157919
  H       9.476472     32.944341      4.896651
  C       7.981794     31.237274      3.358944
  H       7.503856     32.171514      3.716124
  H       8.300291     31.447327      2.308537
  C       8.961293     28.530519      3.395826
  H       9.374935     28.518778      2.357582
  H       9.169477     27.520286      3.805256
  H      14.425439     30.978860      9.278368
  H      12.271039     31.283204      8.074909
  H      13.724947     28.795838      4.838121
324
Coordinates from ORCA-job input E -9763.440721775602
  C      -2.202920      9.056585      2.126495
  C      -3.458529      9.089361      2.768998
  C      -4.055459      7.915849      3.241746
  C      -3.412611      6.671850      3.092063
  C      -2.142636      6.639371      2.482015
  C      -1.547407      7.812799      2.005441
  H      -0.551327      7.772385      1.538966
  H      -1.612096      5.678628      2.387256
  H      -3.984113     10.051369      2.868122
  H      -5.043639      7.960959      3.725887
  C      -4.041994      5.417068      3.618098
  Cl     -3.543725      5.093700      5.342617
  H      -3.735061      4.526617      3.037828
  H      -5.146291      5.481935      3.622941
  C      -0.872229     11.719244     -0.243188
  C      -0.645068     12.797466      0.630039
  C      -1.363433     10.478488      0.194896
  C      -0.881889     12.624314      2.008423
  C      -1.611915     10.310056      1.584582
  H      -0.690426     11.864990     -1.321256
  C      -1.355746     11.381329      2.460192
  H      -1.539343     11.233987      3.536990
  C      -1.793401      9.434337     -0.827473
  C      -3.311915      9.380627     -0.875377
  H      -1.392733      8.430329     -0.590733
  H      -1.385737      9.718618     -1.819752
  C      -4.044708      8.242782     -0.493417
  C      -5.435266      8.316697     -0.358393
  C      -6.138399      9.525307     -0.566834
  C      -5.414919     10.660657     -1.016995
  C      -4.023520     10.550586     -1.178389
  H      -3.519509      7.308542     -0.242438
  H      -5.994282      7.434314     -0.011032
  H      -3.462387     11.447752     -1.484721
  C      -7.593268      9.563406     -0.260633
  C      -8.476771      8.621591     -0.830539
  C      -9.839535      8.626697     -0.509941
  C     -10.365606      9.574363      0.388941
  C      -8.123163     10.503270      0.653305
  C      -9.485224     10.507489      0.971650
  H      -8.084347      7.884173     -1.547395
  H     -10.511570      7.884264     -0.968933
  H      -7.448598     11.225949      1.137982
  H      -9.873851     11.241363      1.695340
  C     -11.818427      9.559216      0.757226
  Cl    -12.120027      8.537616      2.238620
  H     -12.442935      9.127798     -0.047415
  H     -12.193338     10.570881      1.001756
  C      -0.667972     13.774543      2.965199
  C       0.334323     14.795093      2.484183
  H      -0.383817     13.394458      3.968311
  H      -1.638907     14.306163      3.115187
  C      -0.226446     14.148213      0.104076
  C       0.542870     14.982407      1.101412
  H      -1.152089     14.705520     -0.175571
  H       0.351008     14.039116     -0.836960
  C       1.042790     15.604210      3.391152
  C       1.917248     16.600192      2.946064
  C       1.427358     15.980497      0.664532
  C       2.115470     16.820549      1.564245
  H       1.552456     16.136708     -0.418661
  H       0.903278     15.446546      4.472738
  H       2.474360     17.203704      3.678261
  C       2.954586     17.936768      1.066015
  C       3.643521     17.859568     -0.165003
  C       4.337034     18.963410     -0.676114
  C       4.375153     20.189103      0.017363
  C       3.714263     20.257648      1.259866
  H       3.643196     16.914623     -0.728615
  H       4.858066     18.875279     -1.642765
  C       3.025861     19.156200      1.775362
  H       3.684532     21.211589      1.807879
  H       2.481677     19.266220      2.724382
  C      -6.045500     12.010499     -1.306001
  C      -5.375746     13.150828     -0.556392
  H      -7.131739     11.990334     -1.083287
  H      -5.973600     12.218682     -2.395721
  C      -4.778604     12.946840      0.704309
  C      -4.094718     13.975465      1.358803
  C      -5.291040     14.440768     -1.115226
  C      -4.619001     15.478080     -0.454521
  C      -3.990241     15.266146      0.793431
  H      -4.795720     11.944046      1.157114
  H      -3.590127     13.755966      2.310422
  H      -5.748753     14.635196     -2.098801
  H      -4.574216     16.476144     -0.917411
  C      -3.187594     16.334350      1.445148
  C      -2.329986     17.122227      0.645790
  C      -1.513279     18.131520      1.173763
  C      -3.258470     16.618077      2.837429
  C      -2.382792     17.582200      3.367132
  C      -1.501122     18.326961      2.571515
  H      -2.301325     16.932573     -0.439345
  H      -2.436803     17.806431      4.445638
  C      -4.418678     16.164413      3.717440
  C      -5.420016     17.308003      3.729714
  H      -4.070487     15.949810      4.747874
  H      -4.892706     15.246072      3.325005
  C      -5.638342     18.114232      4.857739
  C      -6.393733     19.292829      4.748632
  C      -6.940313     19.704533      3.518409
  C      -6.754721     18.875146      2.376785
  C      -6.019479     17.691537      2.515471
  H      -5.185482     17.841646      5.824459
  H      -6.541513     19.931274      5.633537
  H      -5.843993     17.079520      1.617576
  C      -7.575518     21.046245      3.389660
  C      -8.917914     21.218003      3.001098
  C      -9.435351     22.499647      2.761098
  C      -8.629453     23.642981      2.912937
  C      -7.297309     23.474694      3.339938
  C      -6.781938     22.199776      3.578469
  H      -9.560271     20.334349      2.866882
  H      -5.728142     22.079002      3.870331
  H      -6.649943     24.358464      3.448486
  H     -10.483077     22.612658      2.439233
  C      -9.174720     25.014424      2.631809
  Cl     -8.213004     25.901205      1.361451
  H      -9.140637     25.664766      3.528188
  H     -10.218686     24.969729      2.268796
  C      -7.186506     19.307337      0.988832
  C      -6.582581     20.638384      0.575985
  H      -8.290887     19.385396      0.915378
  H      -6.889893     18.512711      0.270512
  C      -5.237231     20.956511      0.855086
  C      -4.728100     22.232773      0.577149
  C      -5.547125     23.220691     -0.009312
  C      -7.383795     21.614486     -0.041111
  C      -6.876020     22.881837     -0.338589
  H      -4.585844     20.205193      1.330465
  H      -3.680048     22.469023      0.820415
  H      -8.441647     21.390273     -0.250822
  H      -7.533606     23.652162     -0.767585
  C      -5.095742     24.615260     -0.242376
  C      -4.659683     25.422511      0.825905
  C      -4.403801     26.794099      0.654802
  C      -5.210713     25.200578     -1.520760
  C      -4.901041     26.550250     -1.711831
  C      -4.516668     27.364666     -0.631853
  H      -4.587356     24.979405      1.832221
  H      -5.541519     24.581502     -2.368470
  H      -4.976949     26.991886     -2.718654
  C      -4.112982     27.684766      1.843870
  C      -3.296891     28.911303      1.504171
  C      -3.343692     29.442648      0.198485
  C      -4.278651     28.843630     -0.822894
  H      -5.259882     29.373340     -0.750450
  H      -3.914874     29.048156     -1.851097
  H      -3.618141     27.106214      2.651611
  H      -5.094108     28.005035      2.272185
  C      -2.500590     29.552638      2.468749
  C      -2.533998     30.544540     -0.114771
  C      -1.719872     31.173036      0.844354
  C      -1.726666     30.691281      2.181421
  H      -2.478347     29.144333      3.493212
  H      -2.540992     30.942599     -1.142585
  C      -0.785684     32.247057      0.411604
  C       0.249864     31.922959     -0.491585
  C       1.239583     32.855785     -0.812837
  C      -0.846681     33.562377      0.915896
  C       0.147054     34.496122      0.597038
  C       1.218680     34.145887     -0.247778
  H       0.302902     30.901231     -0.896459
  H       2.068142     32.567261     -1.478548
  H      -1.675207     33.849631      1.580972
  H       0.104514     35.509161      1.027537
  C       2.367609     35.081499     -0.458298
  Cl      3.709578     34.720518      0.734011
  H       2.086795     36.138116     -0.292001
  H       2.820406     34.975752     -1.461934
  C      -0.867449     31.306060      3.279573
  C      -0.644890     18.995406      0.287720
  C      -0.556583     19.337253      3.170908
  C      -0.293409     20.519049      2.266451
  H       0.408780     18.813863      3.371100
  H      -0.922780     19.677981      4.160954
  C      -0.373785     20.365065      0.867612
  H      -1.088873     19.076970     -0.725582
  H       0.338130     18.487110      0.146328
  C      -0.121109     21.479136      0.046513
  C       0.072226     21.768195      2.790513
  C       0.373553     22.872031      1.970898
  C       0.262800     22.731557      0.559851
  H      -0.184941     21.354781     -1.047463
  H       0.137446     21.894932      3.883434
  C       0.865549     24.119685      2.614087
  C       2.011242     24.083272      3.436383
  C       0.229283     25.363782      2.430749
  C       0.725574     26.525315      3.035431
  C       1.864743     26.488442      3.866920
  C       2.500890     25.244409      4.047848
  H       3.402141     25.183787      4.679252
  H       2.541956     23.128440      3.572693
  H      -0.678946     25.423774      1.810768
  H       0.207468     27.478471      2.854882
  C       2.358733     27.717998      4.624498
  C       0.890685     29.601361      3.921432
  C       1.589976     31.463180      2.573985
  C       0.561493     30.796329      3.264542
  H      -1.329899     31.059875      4.256830
  H      -0.863860     32.408621      3.196249
  C       2.178603     29.030415      3.894352
  C       3.216325     29.714690      3.199425
  C       2.877719     30.926204      2.546769
  H       1.398751     32.417723      2.064306
  H       3.653617     31.473133      1.991220
  H       0.108858     29.087866      4.505131
  H       3.412554     27.565395      4.926060
  H       1.779173     27.772811      5.573418
  C       4.653494     29.321582      3.217102
  C       5.142806     27.996075      3.134630
  C       6.520710     27.729127      3.208718
  C       7.463990     28.768144      3.329387
  C       6.989785     30.097391      3.349745
  C       5.614242     30.351115      3.325408
  H       4.444694     27.157775      2.996676
  H       6.867157     26.684082      3.155005
  H       5.274486     31.394293      3.411561
  C       5.079987     21.399060     -0.568860
  C       4.383602     22.706851     -0.237100
  H       5.115461     21.281807     -1.673445
  H       6.137555     21.413446     -0.235128
  C       5.001464     23.800309      0.427362
  C       4.256213     24.987336      0.603304
  C       2.898260     25.057304      0.269312
  C       3.026857     22.809399     -0.582042
  C       2.248800     23.936331     -0.280307
  H       2.537997     21.932248     -1.036165
  H       4.736394     25.846790      1.095415
  H       2.326539     25.967624      0.505897
  C       0.736898     23.825079     -0.392344
  H       0.441246     23.550014     -1.425756
  H       0.267347     24.801856     -0.171291
  C       6.358722     23.688266      1.018811
  C       6.665116     22.588122      1.851117
  C       7.933618     22.428405      2.408029
  C       8.956754     23.365259      2.165570
  C       8.639649     24.495439      1.387289
  C       7.363630     24.657688      0.822662
  H       5.892346     21.836461      2.068726
  H       8.129732     21.545240      3.027258
  H       9.416456     25.252811      1.191092
  H       7.152684     25.536616      0.193921
  C      10.369670     23.118646      2.665406
  C      10.502912     22.857560      4.157944
  H      10.995005     23.997412      2.409482
  H      10.787710     22.270884      2.087613
  C      10.740187     23.968842      4.988715
  C      10.864468     23.858206      6.377634
  C      10.751606     22.587853      6.983861
  C      10.495557     21.476136      6.174288
  C      10.367672     21.579656      4.770382
  C      10.009219     20.352005      4.007818
  H      10.416711     20.479291      6.636805
  H      10.843009     24.962856      4.521933
  C      10.721360     19.908985      2.874319
  C      10.250089     18.837884      2.102874
  C       9.067969     18.159542      2.452546
  C       8.395232     18.547726      3.628682
  C       8.860870     19.619372      4.393669
  H      11.655814     20.413556      2.587712
  H      10.806474     18.528411      1.203839
  H       7.469428     18.027479      3.919989
  H       8.295843     19.944442      5.280698
  C       8.491734     17.090829      1.572673
  Cl      7.001712     17.701017      0.709952
  H       8.160257     16.207238      2.151112
  H       9.205243     16.765124      0.792915
  C      10.958740     22.499322      8.483037
  C      12.111753     23.383565      8.908074
  H      11.113236     21.451372      8.807526
  H      10.028287     22.850255      8.992024
  C      12.231684     24.644167      8.281242
  C      11.177109     25.034330      7.270532
  H      11.488742     25.920637      6.682652
  H      10.249276     25.332863      7.815425
  C      13.086523     23.003082      9.844663
  C      14.174706     23.838410     10.132888
  C      14.338382     25.076916      9.472767
  C      13.334213     25.456720      8.552296
  H      13.423750     26.397593      7.991374
  H      14.915806     23.507847     10.875029
  H      13.001116     22.028632     10.351603
  C      15.531621     25.939813      9.668269
  C      16.711294     25.493227     10.301383
  C      17.828812     26.331940     10.387706
  C      15.539262     27.250625      9.146009
  C      16.660834     28.084544      9.171979
  C      17.836634     27.620579      9.819034
  H      18.738504     25.968338     10.891807
  H      16.774963     24.474896     10.710872
  H      14.629445     27.644005      8.679875
  C      19.066447     28.468524      9.912899
  Cl     18.881756     29.824128     11.130540
  H      19.315082     28.967560      8.956539
  H      19.941232     27.879917     10.245108
  C      16.610734     29.449666      8.496669
  C      15.332540     29.707557      7.733448
  H      17.478881     29.529674      7.804878
  H      16.774266     30.236858      9.262902
  C      15.094467     29.092218      6.485948
  C      13.875409     29.254956      5.815397
  C      12.846938     30.057098      6.360501
  C      13.088490     30.670508      7.610249
  C      14.304231     30.495196      8.283108
  H      15.881828     28.467732      6.034029
  C      11.580493     30.313872      5.628196
  C      10.887501     29.309166      4.914515
  C      11.047164     31.621491      5.622974
  C       9.707499     29.589838      4.198927
  C       9.209876     30.913220      4.188758
  C       9.880354     31.911330      4.913992
  H      11.271728     28.275528      4.933619
  H      11.577035     32.424049      6.157160
  H       9.484014     32.939248      4.907770
  C       7.980879     31.233484      3.378541
  H       7.502658     32.165269      3.741841
  H       8.295059     31.449419      2.328048
  C       8.960516     28.523548      3.412861
  H       9.373732     28.504513      2.374604
  H       9.166534     27.514983      3.827615
  H      14.456564     30.971603      9.264557
  H      12.297790     31.281943      8.070678
  H      13.728691     28.785955      4.830133
324
Coordinates from ORCA-job input E -9763.440815947230
  C      -2.194417      9.055149      2.118656
  C      -3.448752      9.081259      2.763879
  C      -4.039701      7.904144      3.235317
  C      -3.392032      6.663154      3.081561
  C      -2.123269      6.637342      2.468646
  C      -1.533996      7.814325      1.993521
  H      -0.538760      7.779191      1.524794
  H      -1.588824      5.679099      2.370576
  H      -3.978509     10.040656      2.866064
  H      -5.026934      7.944115      3.721838
  C      -4.015151      5.404573      3.606030
  Cl     -3.510387      5.078162      5.328025
  H      -3.706790      4.516871      3.022311
  H      -5.119649      5.465435      3.614388
  C      -0.876278     11.726670     -0.247772
  C      -0.651324     12.803922      0.627242
  C      -1.363443     10.483729      0.188623
  C      -0.885804     12.627426      2.005629
  C      -1.609253     10.311897      1.578313
  H      -0.697177     11.875254     -1.325901
  C      -1.355088     11.382148      2.455641
  H      -1.535903     11.231872      3.532506
  C      -1.791316      9.439698     -0.834729
  C      -3.309791      9.382534     -0.881399
  H      -1.388363      8.436328     -0.599141
  H      -1.384825      9.725818     -1.826967
  C      -4.039421      8.242753     -0.499141
  C      -5.429964      8.313307     -0.362005
  C      -6.136221      9.520421     -0.568386
  C      -5.416009     10.657744     -1.019001
  C      -4.024570     10.551064     -1.182512
  H      -3.511717      7.309572     -0.249445
  H      -5.986337      7.429386     -0.014364
  H      -3.465990     11.449814     -1.488878
  C      -7.590609      9.555122     -0.259276
  C      -8.473413      8.611984     -0.828136
  C      -9.835628      8.614352     -0.504992
  C     -10.361827      9.560531      0.395426
  C      -8.120519     10.493065      0.656617
  C      -9.482015     10.494609      0.977421
  H      -8.080900      7.875727     -1.546128
  H     -10.507177      7.871116     -0.963389
  H      -7.446341     11.216287      1.141000
  H      -9.870640     11.227238      1.702368
  C     -11.814073      9.542848      0.766204
  Cl    -12.111307      8.522878      2.249583
  H     -12.438947      9.109120     -0.036911
  H     -12.190632     10.554139      1.009768
  C      -0.675483     13.776831      2.964148
  C       0.322992     14.801487      2.484217
  H      -0.389637     13.396305      3.966581
  H      -1.647942     14.305192      3.115205
  C      -0.237119     14.156828      0.103368
  C       0.530382     14.991610      1.101649
  H      -1.164655     14.711607     -0.174858
  H       0.340097     14.051086     -0.838191
  C       1.028942     15.611411      3.392263
  C       1.900280     16.610538      2.948515
  C       1.411878     15.992891      0.666141
  C       2.097963     16.833327      1.567086
  H       1.536861     16.150959     -0.416786
  H       0.889947     15.451699      4.473613
  H       2.455866     17.214530      3.681334
  C       2.935764     17.951745      1.071744
  C       3.624244     17.878872     -0.159620
  C       4.320103     18.983620     -0.665586
  C       4.361983     20.205376      0.034233
  C       3.699720     20.270270      1.276244
  H       3.622014     16.936562     -0.727620
  H       4.841522     18.898843     -1.632315
  C       3.008207     19.168407      1.786030
  H       3.671616     21.222082      1.828346
  H       2.463510     19.275300      2.735024
  C      -6.049991     12.006505     -1.305669
  C      -5.381642     13.147186     -0.555469
  H      -7.135861     11.983555     -1.081511
  H      -5.979968     12.216286     -2.395192
  C      -4.782538     12.942710      0.704142
  C      -4.100302     13.971889      1.359540
  C      -5.300480     14.438140     -1.112443
  C      -4.630020     15.475891     -0.450941
  C      -3.999087     15.263614      0.795967
  H      -4.796919     11.939162      1.155403
  H      -3.593917     13.751448      2.309896
  H      -5.760084     14.633164     -2.095012
  H      -4.588133     16.474702     -0.912436
  C      -3.198326     16.333295      1.447793
  C      -2.345021     17.124976      0.647667
  C      -1.530100     18.136200      1.174855
  C      -3.266635     16.615018      2.840763
  C      -2.393090     17.581615      3.369291
  C      -1.515970     18.330732      2.572611
  H      -2.316858     16.935807     -0.437546
  H      -2.445974     17.804952      4.448043
  C      -4.423911     16.157798      3.723020
  C      -5.425953     17.300650      3.738516
  H      -4.073042     15.942558      4.752408
  H      -4.897567     15.239382      3.330406
  C      -5.640865     18.107586      4.866696
  C      -6.394658     19.287311      4.758594
  C      -6.941955     19.699876      3.528977
  C      -6.760598     18.869237      2.387698
  C      -6.028206     17.683928      2.525705
  H      -5.186926     17.834482      5.832763
  H      -6.538950     19.926781      5.643332
  H      -5.856500     17.070664      1.627953
  C      -7.572735     21.043491      3.399467
  C      -8.914679     21.219884      3.011299
  C      -9.426896     22.503337      2.769393
  C      -8.616156     23.643628      2.918741
  C      -7.284373     23.470649      3.345016
  C      -6.774236     22.194087      3.585649
  H      -9.560565     20.338587      2.878617
  H      -5.720540     22.069443      3.876213
  H      -6.633283     24.351928      3.451680
  H     -10.474368     22.620153      2.448067
  C      -9.156114     25.016906      2.636199
  Cl     -8.189619     25.899733      1.366710
  H      -9.120885     25.667525      3.532345
  H     -10.199747     24.975889      2.271811
  C      -7.190739     19.302564      0.999741
  C      -6.577729     20.629122      0.585191
  H      -8.294563     19.388165      0.926604
  H      -6.899817     18.505238      0.282102
  C      -5.230080     20.938950      0.863216
  C      -4.712204     22.211180      0.581696
  C      -5.524867     23.202519     -0.007642
  C      -7.372741     21.609051     -0.033768
  C      -6.856437     22.872054     -0.334742
  H      -4.583443     20.184635      1.340398
  H      -3.661888     22.440706      0.822779
  H      -8.432039     21.391114     -0.242820
  H      -7.508393     23.645676     -0.766413
  C      -5.066324     24.594129     -0.246095
  C      -4.641809     25.409191      0.820836
  C      -4.384980     26.779609      0.642008
  C      -5.166350     25.169236     -1.530304
  C      -4.855436     26.517652     -1.728326
  C      -4.485191     27.340518     -0.649980
  H      -4.580614     24.973661      1.831196
  H      -5.487060     24.543214     -2.376795
  H      -4.921307     26.951927     -2.739039
  C      -4.108602     27.680546      1.826778
  C      -3.287409     28.903396      1.485975
  C      -3.323396     29.425802      0.176348
  C      -4.250311     28.819103     -0.847776
  H      -5.233702     29.345901     -0.783570
  H      -3.881069     29.019543     -1.874784
  H      -3.624609     27.108984      2.645953
  H      -5.095009     28.005018      2.239584
  C      -2.498585     29.550641      2.452642
  C      -2.511901     30.525995     -0.138011
  C      -1.704978     31.160120      0.823453
  C      -1.722408     30.687332      2.163766
  H      -2.485975     29.150203      3.480366
  H      -2.510415     30.916831     -1.168685
  C      -0.767507     32.231910      0.391678
  C       0.277567     31.902250     -0.498292
  C       1.268675     32.834444     -0.817332
  C      -0.836492     33.551230      0.884292
  C       0.158716     34.484241      0.567824
  C       1.239680     34.128895     -0.262766
  H       0.335740     30.877637     -0.895074
  H       2.104707     32.541901     -1.471845
  H      -1.673093     33.842797      1.537274
  H       0.110295     35.500547      0.989910
  C       2.389032     35.064982     -0.468772
  Cl      3.715493     34.720078      0.745736
  H       2.103922     36.122764     -0.317906
  H       2.855581     34.949051     -1.464925
  C      -0.870263     31.309226      3.263548
  C      -0.666503     19.002877      0.286970
  C      -0.574271     19.343589      3.171979
  C      -0.310478     20.524671      2.266709
  H       0.391245     18.822138      3.376060
  H      -0.943423     19.685433      4.160602
  C      -0.392976     20.371391      0.868012
  H      -1.115534     19.086507     -0.723970
  H       0.315894     18.494960      0.139587
  C      -0.139598     21.485525      0.046948
  C       0.058192     21.773168      2.790428
  C       0.359573     22.877125      1.970958
  C       0.246552     22.737245      0.559979
  H      -0.204624     21.361454     -1.046988
  H       0.125061     21.899457      3.883311
  C       0.853566     24.123902      2.614180
  C       1.999505     24.086714      3.436044
  C       0.217827     25.368461      2.431658
  C       0.715125     26.529776      3.036250
  C       1.854971     26.492266      3.867102
  C       2.490356     25.247623      4.047266
  H       3.391892     25.186293      4.678186
  H       2.529726     23.131485      3.572276
  H      -0.691400     25.428756      1.812842
  H       0.197146     27.483028      2.856027
  C       2.350005     27.721224      4.625498
  C       0.885113     29.605813      3.917147
  C       1.591875     31.469346      2.575874
  C       0.559324     30.801168      3.259103
  H      -1.338519     31.068295      4.239433
  H      -0.867920     32.411208      3.173760
  C       2.172986     29.034612      3.896008
  C       3.214530     29.719433      3.207215
  C       2.879846     30.932456      2.555417
  H       1.403975     32.424570      2.066203
  H       3.658636     31.480105      2.004609
  H       0.100144     29.091872      4.496202
  H       3.403343     27.567188      4.928198
  H       1.769629     27.776625      5.573938
  C       4.651182     29.324482      3.229564
  C       5.138827     27.998723      3.143737
  C       6.516107     27.729836      3.218854
  C       7.461074     28.766745      3.344805
  C       6.988923     30.096532      3.369082
  C       5.613469     30.352183      3.343084
  H       4.440243     27.161675      3.000567
  H       6.860743     26.684623      3.162003
  H       5.275274     31.395759      3.430595
  C       5.072973     21.415481     -0.543024
  C       4.370334     22.722659     -0.221245
  H       5.124617     21.298001     -1.646940
  H       6.125413     21.431395     -0.193780
  C       4.984208     23.823535      0.434386
  C       4.236198     25.009914      0.599259
  C       2.878339     25.073687      0.262724
  C       3.013577     22.818480     -0.568499
  C       2.232281     23.946040     -0.277293
  H       2.527099     21.936073     -1.014819
  H       4.714404     25.874734      1.083528
  H       2.303431     25.983963      0.491579
  C       0.720739     23.830485     -0.392537
  H       0.428125     23.552984     -1.426192
  H       0.248039     24.806494     -0.174622
  C       6.340683     23.718741      1.029507
  C       6.641957     22.632303      1.881315
  C       7.910088     22.475967      2.439941
  C       8.938095     23.402423      2.178768
  C       8.625538     24.521253      1.382464
  C       7.349418     24.680512      0.816860
  H       5.864891     21.888895      2.111756
  H       8.102829     21.603105      3.074581
  H       9.405976     25.271155      1.172477
  H       7.141564     25.550066      0.174227
  C      10.351907     23.153289      2.675418
  C      10.487292     22.884337      4.165992
  H      10.977370     24.032865      2.422470
  H      10.768431     22.308542      2.091934
  C      10.724719     23.991647      5.002043
  C      10.850286     23.874088      6.390070
  C      10.739290     22.600325      6.989856
  C      10.483397     21.492557      6.174961
  C      10.354282     21.603102      4.771588
  C       9.998012     20.378683      4.002964
  H      10.406350     20.493325      6.632606
  H      10.826480     24.988049      4.540153
  C      10.709361     19.945073      2.865308
  C      10.241506     18.875863      2.089234
  C       9.063832     18.189530      2.438264
  C       8.391081     18.569469      3.617100
  C       8.853585     19.638982      4.386925
  H      11.640405     20.455996      2.578839
  H      10.798340     18.572654      1.188339
  H       7.468855     18.042944      3.908469
  H       8.288259     19.956824      5.276431
  C       8.490451     17.123235      1.553958
  Cl      6.998144     17.733332      0.693898
  H       8.160816     16.236380      2.128315
  H       9.203992     16.802948      0.772033
  C      10.948575     22.504768      8.488268
  C      12.104122     23.385187      8.914145
  H      11.101705     21.455217      8.808125
  H      10.019772     22.855584      9.000343
  C      12.223741     24.648711      8.292834
  C      11.164943     25.045298      7.288724
  H      11.473740     25.935538      6.704861
  H      10.238892     25.339624      7.838870
  C      13.082408     22.997997      9.844147
  C      14.174146     23.829205     10.130676
  C      14.337854     25.070301      9.475634
  C      13.329529     25.457238      8.562402
  H      13.418148     26.400541      8.005549
  H      14.918120     23.492955     10.867343
  H      12.997939     22.020840     10.346000
  C      15.535930     25.927550      9.667081
  C      16.714004     25.477544     10.301056
  C      17.835949     26.310868     10.382690
  C      15.550198     27.236027      9.139356
  C      16.675991     28.064092      9.160375
  C      17.850075     27.596929      9.808217
  H      18.744197     25.944749     10.887566
  H      16.772742     24.460924     10.715464
  H      14.642447     27.632262      8.671784
  C      19.084315     28.438943      9.897120
  Cl     18.907691     29.801194     11.108465
  H      19.334720     28.932138      8.938192
  H      19.956336     27.847383     10.231353
  C      16.632028     29.426087      8.478231
  C      15.351794     29.688096      7.719876
  H      17.497371     29.495672      7.781807
  H      16.804762     30.216246      9.239332
  C      15.105390     29.071461      6.474655
  C      13.883273     29.236630      5.810207
  C      12.859592     30.042001      6.359562
  C      13.109509     30.656632      7.607107
  C      14.328362     30.479241      8.273729
  H      15.888248     28.443430      6.019847
  C      11.590124     30.301705      5.633542
  C      10.891632     29.299093      4.922168
  C      11.058738     31.610156      5.632691
  C       9.708324     29.582686      4.212705
  C       9.212915     30.907020      4.206632
  C       9.888882     31.902781      4.930080
  H      11.273832     28.264471      4.938387
  H      11.592387     32.411350      6.165157
  H       9.494379     32.931427      4.927286
  C       7.980924     31.231881      3.402739
  H       7.503967     32.161314      3.773761
  H       8.291527     31.455278      2.352760
  C       8.956921     28.518030      3.428537
  H       9.369951     28.495067      2.390315
  H       9.159629     27.509453      3.845050
  H      14.486733     30.955879      9.254107
  H      12.322951     31.270783      8.070994
  H      13.730344     28.766576      4.826388
324
Coordinates from ORCA-job input E -9763.440993191745
  C      -2.183158      9.051890      2.100085
  C      -3.436206      9.065834      2.748104
  C      -4.017421      7.882064      3.215215
  C      -3.361101      6.646569      3.054238
  C      -2.093663      6.632947      2.438121
  C      -1.514050      7.816483      1.967570
  H      -0.519769      7.790963      1.496112
  H      -1.552275      5.679224      2.334164
  H      -3.973983     10.020344      2.854289
  H      -5.003610      7.912685      3.704536
  C      -3.974400      5.380761      3.573023
  Cl     -3.459116      5.044991      5.289873
  H      -3.664185      4.498919      2.981417
  H      -5.079160      5.435526      3.587051
  C      -0.884503     11.741450     -0.255858
  C      -0.664188     12.815754      0.623928
  C      -1.365712     10.494442      0.175500
  C      -0.894968     12.631299      2.002012
  C      -1.607714     10.314865      1.564786
  H      -0.712011     11.897157     -1.334061
  C      -1.356455     11.381568      2.446887
  H      -1.531930     11.224294      3.523654
  C      -1.787480      9.450982     -0.851055
  C      -3.305742      9.387809     -0.898412
  H      -1.381046      8.448624     -0.617066
  H      -1.381133      9.740651     -1.842341
  C      -4.030282      8.244622     -0.516505
  C      -5.420866      8.309358     -0.376603
  C      -6.132393      9.513838     -0.579633
  C      -5.417386     10.654578     -1.030384
  C      -4.025804     10.553814     -1.196709
  H      -3.498521      7.313239     -0.268629
  H      -5.972703      7.422732     -0.028636
  H      -3.471463     11.455567     -1.502056
  C      -7.586002      9.543023     -0.265889
  C      -8.468015      8.597724     -0.832456
  C      -9.829524      8.596943     -0.505932
  C     -10.355743      9.541798      0.395979
  C      -8.116032     10.479880      0.651074
  C      -9.476837     10.478557      0.974940
  H      -8.075801      7.863445     -1.552638
  H     -10.500144      7.851133     -0.961502
  H      -7.442953     11.206390      1.132051
  H      -9.865031     11.209480      1.701840
  C     -11.807499      9.522224      0.769478
  Cl    -12.100489      8.509622      2.258515
  H     -12.432483      9.083412     -0.030814
  H     -12.185908     10.534063      1.007993
  C      -0.691620     13.777906      2.965153
  C       0.299960     14.810841      2.489169
  H      -0.403798     13.395681      3.966286
  H      -1.666823     14.300524      3.117706
  C      -0.257710     14.173251      0.105980
  C       0.505934     15.007889      1.107266
  H      -1.188829     14.722954     -0.169599
  H       0.319435     14.074956     -0.836445
  C       1.000519     15.621286      3.400483
  C       1.866436     16.626442      2.960789
  C       1.382645     16.015069      0.676053
  C       2.064390     16.855273      1.580491
  H       1.507368     16.178024     -0.406223
  H       0.861605     15.456792      4.481130
  H       2.417714     17.231150      3.696043
  C       2.902249     17.977074      1.093792
  C       3.590512     17.913831     -0.137846
  C       4.294639     19.019389     -0.630742
  C       4.347611     20.231230      0.084410
  C       3.683112     20.287183      1.325879
  H       3.582775     16.978118     -0.716689
  H       4.816687     18.942052     -1.597804
  C       2.981798     19.185767      1.821410
  H       3.662937     21.232782      1.888918
  H       2.437280     19.285437      2.771344
  C      -6.056792     12.001452     -1.313612
  C      -5.391858     13.142589     -0.561388
  H      -7.142318     11.973586     -1.088401
  H      -5.988719     12.214135     -2.402682
  C      -4.790575     12.937383      0.696885
  C      -4.112097     13.967602      1.354727
  C      -5.316763     14.435458     -1.114658
  C      -4.649848     15.473898     -0.451029
  C      -4.015568     15.261057      0.794507
  H      -4.800065     11.932293      1.145035
  H      -3.603394     13.744541      2.303117
  H      -5.779525     14.631954     -2.095451
  H      -4.612504     16.473683     -0.910538
  C      -3.218866     16.333199      1.447651
  C      -2.370793     17.131205      0.648343
  C      -1.557911     18.143918      1.176366
  C      -3.283048     16.609752      2.842104
  C      -2.412788     17.579103      3.370694
  C      -1.542367     18.336338      2.574192
  H      -2.340714     16.942980     -0.436940
  H      -2.465560     17.800328      4.449895
  C      -4.433667     16.142961      3.728560
  C      -5.437885     17.283603      3.753657
  H      -4.076482     15.924440      4.755074
  H      -4.906134     15.224770      3.334033
  C      -5.646449     18.088540      4.884502
  C      -6.398116     19.270059      4.781956
  C      -6.947855     19.687050      3.554889
  C      -6.774350     18.857803      2.411976
  C      -6.046320     17.669331      2.544915
  H      -5.189843     17.812144      5.848377
  H      -6.536522     19.908487      5.668383
  H      -5.881307     17.056812      1.645361
  C      -7.569233     21.034914      3.427372
  C      -8.910500     21.222708      3.042533
  C      -9.411602     22.510940      2.801731
  C      -8.590257     23.644006      2.948733
  C      -7.258740     23.459248      3.370991
  C      -6.759604     22.178314      3.610444
  H      -9.564229     20.347038      2.911095
  H      -5.705832     22.044043      3.896379
  H      -6.599262     24.334493      3.475643
  H     -10.458792     22.637221      2.483075
  C      -9.118814     25.022821      2.672043
  Cl     -8.149018     25.900463      1.400707
  H      -9.073236     25.670713      3.569655
  H     -10.164055     24.993137      2.311321
  C      -7.203613     19.297090      1.025927
  C      -6.574866     20.616266      0.610497
  H      -8.306426     19.396609      0.955137
  H      -6.924310     18.496742      0.307038
  C      -5.222713     20.909753      0.884212
  C      -4.688563     22.174128      0.596508
  C      -5.489648     23.173176      0.004625
  C      -7.359479     21.604866     -0.007926
  C      -6.827458     22.859908     -0.314700
  H      -4.584473     20.149657      1.363481
  H      -3.633023     22.388575      0.829563
  H      -8.421868     21.399023     -0.213688
  H      -7.469234     23.640589     -0.748927
  C      -5.018471     24.559762     -0.244588
  C      -4.614415     25.390329      0.818369
  C      -4.357536     26.758735      0.624022
  C      -5.092484     25.115240     -1.539106
  C      -4.781601     26.461746     -1.751062
  C      -4.437811     27.301405     -0.677171
  H      -4.571052     24.969534      1.835776
  H      -5.393423     24.475255     -2.382421
  H      -4.831607     26.881909     -2.768616
  C      -4.106535     27.679911      1.798829
  C      -3.277193     28.896216      1.453989
  C      -3.299293     29.403569      0.138168
  C      -4.213348     28.780098     -0.887584
  H      -5.202216     29.297944     -0.834547
  H      -3.838695     28.974808     -1.913634
  H      -3.641893     27.122921      2.638873
  H      -5.101946     28.011992      2.183164
  C      -2.498281     29.553572      2.421635
  C      -2.488365     30.503089     -0.179953
  C      -1.689732     31.146549      0.782418
  C      -1.720017     30.687760      2.128102
  H      -2.499232     29.166497      3.454547
  H      -2.476171     30.882823     -1.214885
  C      -0.748918     32.214760      0.345962
  C       0.301943     31.877874     -0.534296
  C       1.296045     32.807548     -0.853931
  C      -0.820764     33.538425      0.827377
  C       0.178046     34.468112      0.511592
  C       1.265538     34.105287     -0.307316
  H       0.360661     30.850894     -0.924748
  H       2.136755     32.508904     -1.499637
  H      -1.662532     33.836856      1.470467
  H       0.128391     35.487037      0.927156
  C       2.418149     35.039286     -0.510137
  Cl      3.726667     34.715016      0.729500
  H       2.130233     36.099116     -0.379953
  H       2.898831     34.909036     -1.497732
  C      -0.874364     31.318229      3.228102
  C      -0.701502     19.015696      0.287080
  C      -0.605741     19.352577      3.175878
  C      -0.337468     20.532479      2.270358
  H       0.359181     18.833535      3.388728
  H      -0.981792     19.696265      4.161392
  C      -0.422296     20.381062      0.871719
  H      -1.158654     19.104606     -0.719834
  H       0.279146     18.507210      0.129263
  C      -0.164500     21.494891      0.051599
  C       0.036878     21.779557      2.794552
  C       0.340505     22.883900      1.976049
  C       0.226019     22.744749      0.564777
  H      -0.229259     21.371443     -1.042428
  H       0.104372     21.904805      3.887570
  C       0.836151     24.130540      2.618442
  C       1.981141     24.094241      3.441504
  C       0.200986     25.375771      2.434570
  C       0.699006     26.537857      3.036951
  C       1.839164     26.501143      3.867551
  C       2.472870     25.256128      4.050493
  H       3.374580     25.195465      4.681218
  H       2.510054     23.138853      3.581619
  H      -0.709882     25.435579      1.817816
  H       0.181145     27.490767      2.855113
  C       2.336200     27.730928      4.623242
  C       0.875419     29.615726      3.902820
  C       1.592129     31.475090      2.561361
  C       0.554672     30.809162      3.238640
  H      -1.350746     31.088351      4.202885
  H      -0.870384     32.418961      3.127361
  C       2.162577     29.042909      3.890373
  C       3.209558     29.725272      3.207010
  C       2.880457     30.938436      2.552699
  H       1.408798     32.428596      2.048189
  H       3.663464     31.483622      2.005218
  H       0.086516     29.104381      4.478868
  H       3.389517     27.575999      4.925468
  H       1.756850     27.789911      5.572220
  C       4.645387     29.327194      3.237680
  C       5.131899     28.001539      3.143709
  C       6.508500     27.730740      3.221738
  C       7.454776     28.765068      3.360821
  C       6.984305     30.095112      3.394608
  C       5.608848     30.352305      3.363593
  H       4.434213     27.166131      2.987425
  H       6.851696     26.685194      3.158381
  H       5.272114     31.396032      3.455297
  C       5.073712     21.441394     -0.471070
  C       4.357311     22.748474     -0.176167
  H       5.167013     21.321989     -1.572067
  H       6.112149     21.461185     -0.082837
  C       4.963685     23.867949      0.454940
  C       4.209809     25.053891      0.591732
  C       2.852408     25.103050      0.249884
  C       3.000937     22.829524     -0.528994
  C       2.213601     23.959840     -0.265234
  H       2.518777     21.934922     -0.954845
  H       4.684001     25.933962      1.051981
  H       2.270627     26.013178      0.460703
  C       0.703004     23.835961     -0.388787
  H       0.418171     23.552064     -1.422965
  H       0.224298     24.811096     -0.179961
  C       6.317885     23.778072      1.059740
  C       6.601724     22.729271      1.963037
  C       7.869616     22.575043      2.523232
  C       8.915053     23.465111      2.209468
  C       8.618864     24.552611      1.364725
  C       7.342131     24.710781      0.799281
  H       5.809623     22.013988      2.229231
  H       8.050568     21.730831      3.198984
  H       9.412523     25.276272      1.115798
  H       7.146962     25.552098      0.116365
  C      10.330731     23.201394      2.695382
  C      10.473204     22.916670      4.181775
  H      10.961798     24.077872      2.444902
  H      10.735864     22.359496      2.099815
  C      10.709340     24.016390      5.027952
  C      10.836702     23.885664      6.414115
  C      10.732955     22.605340      7.001666
  C      10.479871     21.504472      6.176446
  C      10.347237     21.628676      4.773986
  C       9.991623     20.411920      3.992959
  H      10.407944     20.500542      6.624576
  H      10.806478     25.017730      4.575827
  C      10.700120     19.996222      2.846747
  C      10.236103     18.932598      2.060710
  C       9.066504     18.232196      2.409046
  C       8.396144     18.595321      3.594426
  C       8.853875     19.660455      4.373167
  H      11.625579     20.517617      2.561051
  H      10.791912     18.642414      1.154891
  H       7.478234     18.060357      3.884110
  H       8.290399     19.962875      5.269345
  C       8.498032     17.171109      1.516345
  Cl      6.999265     17.777389      0.664342
  H       8.175597     16.276284      2.082213
  H       9.211140     16.863770      0.728817
  C      10.944418     22.498277      8.499283
  C      12.099559     23.377560      8.929542
  H      11.099608     21.446511      8.810694
  H      10.015935     22.843638      9.015691
  C      12.214677     24.646068      8.317440
  C      11.149185     25.048892      7.323365
  H      11.450670     25.946417      6.747327
  H      10.224126     25.332473      7.880659
  C      13.084271     22.984414      9.850042
  C      14.177711     23.814492     10.134965
  C      14.336609     25.060950      9.488794
  C      13.320756     25.453858      8.586552
  H      13.403177     26.401176      8.035923
  H      14.926620     23.472369     10.863834
  H      13.006386     22.001884     10.342381
  C      15.539346     25.913881      9.673457
  C      16.711638     25.466472     10.319705
  C      17.838931     26.293234     10.393649
  C      15.565757     27.214372      9.126266
  C      16.697401     28.034742      9.138835
  C      17.865415     27.569677      9.798767
  H      18.742325     25.928396     10.908113
  H      16.761415     24.457133     10.752605
  H      14.664686     27.610124      8.645811
  C      19.105292     28.404169      9.879452
  Cl     18.933120     29.787668     11.066918
  H      19.363553     28.879264      8.913477
  H      19.971550     27.811977     10.227368
  C      16.666233     29.386329      8.435226
  C      15.382299     29.654341      7.685902
  H      17.525374     29.430183      7.729028
  H      16.858802     30.186338      9.181103
  C      15.119592     29.033460      6.446166
  C      13.891865     29.203138      5.793111
  C      12.877530     30.015245      6.349887
  C      13.143847     30.633559      7.592249
  C      14.368397     30.452730      8.246910
  H      15.893662     28.398238      5.986321
  C      11.603125     30.281940      5.635453
  C      10.895063     29.284152      4.927265
  C      11.074355     31.591499      5.644760
  C       9.705917     29.572572      4.229692
  C       9.213324     30.897850      4.233042
  C       9.898528     31.889016      4.954598
  H      11.272750     28.248060      4.937968
  H      11.613728     32.389849      6.175709
  H       9.506609     32.918659      4.959511
  C       7.975113     31.231281      3.442683
  H       7.498026     32.153127      3.832371
  H       8.278389     31.474707      2.395026
  C       8.949122     28.510411      3.447425
  H       9.363807     28.480193      2.410096
  H       9.145871     27.501846      3.867248
  H      14.538397     30.930871      9.224624
  H      12.365258     31.252781      8.062783
  H      13.726525     28.728839      4.813345
324
Coordinates from ORCA-job input E -9763.441228923608
  C      -2.164750      9.047677      2.081072
  C      -3.415872      9.046329      2.732801
  C      -3.985197      7.854272      3.193724
  C      -3.318886      6.625600      3.022181
  C      -2.053556      6.627168      2.401506
  C      -1.485627      7.818933      1.937695
  H      -0.492867      7.805333      1.462493
  H      -1.504131      5.679029      2.289063
  H      -3.962282      9.995031      2.846635
  H      -4.969908      7.873195      3.686602
  C      -3.919724      5.350868      3.533839
  Cl     -3.389852      5.002979      5.243605
  H      -3.607874      4.476569      2.931967
  H      -5.024688      5.398082      3.555972
  C      -0.891892     11.761446     -0.260484
  C      -0.677427     12.831767      0.625555
  C      -1.364281     10.508767      0.164171
  C      -0.903798     12.637060      2.003045
  C      -1.601237     10.318748      1.552763
  H      -0.724924     11.925582     -1.338298
  C      -1.355010     11.381295      2.441128
  H      -1.525045     11.215376      3.517462
  C      -1.780168      9.467483     -0.866944
  C      -3.298267      9.396358     -0.912945
  H      -1.368627      8.466253     -0.637026
  H      -1.375771      9.763219     -1.857244
  C      -4.015694      8.248177     -0.532539
  C      -5.406272      8.304811     -0.388649
  C      -6.125036      9.505824     -0.586031
  C      -5.417416     10.651554     -1.036282
  C      -4.025623     10.559133     -1.206249
  H      -3.478288      7.319024     -0.288420
  H      -5.951981      7.414123     -0.041508
  H      -3.477249     11.464866     -1.510612
  C      -7.577551      9.526870     -0.266071
  C      -8.457608      8.578166     -0.830036
  C      -9.817858      8.570870     -0.497966
  C     -10.344831      9.512563      0.406887
  C      -8.108031     10.459561      0.654910
  C      -9.467565     10.451896      0.984124
  H      -8.064850      7.846213     -1.552273
  H     -10.487044      7.822969     -0.952194
  H      -7.436190     11.187593      1.135259
  H      -9.856057     11.180359      1.713314
  C     -11.795411      9.487259      0.785527
  Cl    -12.079178      8.481166      2.280603
  H     -12.420613      9.041713     -0.010875
  H     -12.178003     10.498544      1.019760
  C      -0.709752     13.780106      2.972250
  C       0.272803     14.823840      2.501606
  H      -0.418889     13.395392      3.971467
  H      -1.688606     14.294746      3.127346
  C      -0.281343     14.195300      0.115383
  C       0.477011     15.029982      1.120707
  H      -1.216997     14.738703     -0.156541
  H       0.295729     14.106829     -0.828054
  C       0.966689     15.634605      3.417337
  C       1.825228     16.648036      2.983110
  C       1.346692     16.045627      0.695180
  C       2.022657     16.885557      1.604337
  H       1.471338     16.214895     -0.386136
  H       0.828509     15.463256      4.497003
  H       2.372164     17.252477      3.721447
  C       2.858629     18.013064      1.127896
  C       3.545483     17.963190     -0.104656
  C       4.257358     19.070912     -0.581798
  C       4.322015     20.270290      0.152164
  C       3.654086     20.314804      1.392508
  H       3.531824     17.036045     -0.697028
  H       4.780134     19.003638     -1.549214
  C       2.943507     19.212649      1.870917
  H       3.640312     21.253229      1.968400
  H       2.398540     19.302912      2.821249
  C      -6.064335     11.996213     -1.312914
  C      -5.402773     13.137214     -0.557863
  H      -7.149034     11.961869     -1.084788
  H      -6.000251     12.213629     -2.401253
  C      -4.798152     12.929892      0.698311
  C      -4.123682     13.960654      1.359588
  C      -5.334863     14.432756     -1.105764
  C      -4.671565     15.471328     -0.439042
  C      -4.033055     15.256606      0.804248
  H      -4.802547     11.922913      1.142423
  H      -3.611401     13.733919      2.304961
  H      -5.801537     14.631724     -2.084187
  H      -4.639385     16.472886     -0.895091
  C      -3.241471     16.331658      1.458998
  C      -2.402070     17.138071      0.659310
  C      -1.594113     18.155101      1.186529
  C      -3.301446     16.603613      2.854876
  C      -2.437105     17.578835      3.381960
  C      -1.576377     18.346159      2.584256
  H      -2.371745     16.951285     -0.426170
  H      -2.489052     17.798249      4.461574
  C      -4.446009     16.128271      3.745114
  C      -5.452131     17.266760      3.776440
  H      -4.083705     15.908391      4.769516
  H      -4.916876     15.209721      3.349718
  C      -5.655271     18.072488      4.907742
  C      -6.403065     19.256545      4.806758
  C      -6.952086     19.676081      3.580248
  C      -6.785407     18.845125      2.437919
  C      -6.063983     17.652857      2.569947
  H      -5.197507     17.794732      5.870670
  H      -6.535922     19.896325      5.693053
  H      -5.904591     17.038901      1.670378
  C      -7.563438     21.028051      3.450462
  C      -8.903274     21.226583      3.065656
  C      -9.391986     22.518983      2.820668
  C      -8.559788     23.644806      2.963512
  C      -7.229365     23.448972      3.384401
  C      -6.742581     22.164335      3.628447
  H      -9.564913     20.356530      2.936715
  H      -5.689353     22.020778      3.911758
  H      -6.561561     24.318295      3.486318
  H     -10.438362     22.654348      2.503093
  C      -9.074981     25.027900      2.683204
  Cl     -8.095907     25.893503      1.410192
  H      -9.023371     25.677398      3.579282
  H     -10.120079     25.007923      2.321510
  C      -7.208642     19.287636      1.051478
  C      -6.557566     20.595330      0.632458
  H      -8.309575     19.405358      0.979983
  H      -6.942427     18.481169      0.334478
  C      -5.200034     20.868226      0.903167
  C      -4.644457     22.122130      0.606423
  C      -5.430246     23.129223      0.008079
  C      -7.326919     21.593165      0.010085
  C      -6.774409     22.837017     -0.304888
  H      -4.573710     20.101166      1.387165
  H      -3.583133     22.319359      0.833005
  H      -8.392624     21.402792     -0.193549
  H      -7.402364     23.625498     -0.745214
  C      -4.943336     24.508759     -0.253331
  C      -4.569402     25.359673      0.804311
  C      -4.313095     26.725182      0.590318
  C      -4.981166     25.038181     -1.560110
  C      -4.670639     26.381903     -1.789682
  C      -4.363953     27.243450     -0.722373
  H      -4.552386     24.958369      1.830352
  H      -5.255517     24.380193     -2.398630
  H      -4.697090     26.783217     -2.815668
  C      -4.098811     27.672047      1.751781
  C      -3.260142     28.881042      1.403873
  C      -3.259322     29.367123      0.079937
  C      -4.152139     28.721347     -0.950536
  H      -5.147801     29.227779     -0.916784
  H      -3.765821     28.907167     -1.973786
  H      -3.660604     27.134812      2.618316
  H      -5.106050     28.011455      2.097080
  C      -2.498592     29.553531      2.374535
  C      -2.448304     30.465285     -0.241436
  C      -1.666264     31.123892      0.724694
  C      -1.717328     30.684503      2.076675
  H      -2.518602     29.183495      3.413454
  H      -2.419549     30.829032     -1.281927
  C      -0.722147     32.189767      0.288076
  C       0.345085     31.845681     -0.569000
  C       1.340399     32.775985     -0.884452
  C      -0.808841     33.519853      0.749503
  C       0.191319     34.449710      0.438553
  C       1.294638     34.080599     -0.355999
  H       0.414787     30.813769     -0.944317
  H       2.193088     32.472460     -1.511906
  H      -1.663285     33.823835      1.372935
  H       0.129866     35.474014      0.838993
  C       2.447176     35.017086     -0.549284
  Cl      3.722530     34.728282      0.733020
  H       2.150301     36.077918     -0.451133
  H       2.954700     34.867589     -1.520532
  C      -0.887153     31.330263      3.179908
  C      -0.747251     19.032399      0.294037
  C      -0.648601     19.369679      3.186819
  C      -0.377726     20.547239      2.278703
  H       0.316458     18.856286      3.411055
  H      -1.033910     19.716469      4.167792
  C      -0.463669     20.395500      0.880365
  H      -1.214010     19.125062     -0.708191
  H       0.232105     18.524713      0.124982
  C      -0.202500     21.508215      0.059283
  C       0.001983     21.793680      2.801085
  C       0.307160     22.897102      1.981816
  C       0.191421     22.757261      0.570807
  H      -0.268039     21.383986     -1.034609
  H       0.070802     21.919540      3.893984
  C       0.805695     24.143391      2.621978
  C       1.950337     24.107983      3.445296
  C       0.169795     25.388447      2.437911
  C       0.668462     26.551737      3.038542
  C       1.810227     26.516449      3.868002
  C       2.443203     25.270996      4.052018
  H       3.345186     25.210849      4.682371
  H       2.478425     23.152246      3.588310
  H      -0.744908     25.446199      1.825271
  H       0.150298     27.504096      2.855323
  C       2.308897     27.746660      4.623509
  C       0.855691     29.632488      3.886063
  C       1.588763     31.490622      2.551421
  C       0.542696     30.824413      3.215316
  H      -1.377084     31.112863      4.150997
  H      -0.884345     32.429341      3.064588
  C       2.142529     29.059212      3.889191
  C       3.198118     29.740450      3.217226
  C       2.877596     30.954285      2.559934
  H       1.412197     32.442850      2.033878
  H       3.668033     31.499227      2.022808
  H       0.059651     29.121534      4.452552
  H       3.361282     27.589358      4.928084
  H       1.728080     27.808657      5.571490
  C       4.632488     29.336995      3.260070
  C       5.113406     28.010302      3.158796
  C       6.487906     27.732756      3.240423
  C       7.439627     28.760739      3.393324
  C       6.975870     30.092739      3.437313
  C       5.600675     30.356470      3.400110
  H       4.413565     27.179018      2.990601
  H       6.824918     26.686017      3.168946
  H       5.268695     31.401380      3.496092
  C       5.065404     21.480329     -0.376748
  C       4.332413     22.786351     -0.116645
  H       5.209333     21.358250     -1.471983
  H       6.084747     21.505711      0.058537
  C       4.929046     23.928483      0.482167
  C       4.168774     25.112974      0.581989
  C       2.811598     25.143429      0.233852
  C       2.976641     22.848094     -0.476355
  C       2.181495     23.981016     -0.248452
  H       2.500168     21.938255     -0.875039
  H       4.638624     26.009794      1.013665
  H       2.221838     26.053918      0.418802
  C       0.672083     23.845837     -0.384025
  H       0.398336     23.553395     -1.418910
  H       0.185027     24.819435     -0.187251
  C       6.281780     23.860857      1.094749
  C       6.549337     22.863156      2.058613
  C       7.817731     22.716495      2.620203
  C       8.879607     23.561968      2.243737
  C       8.598326     24.606703      1.341927
  C       7.320331     24.758747      0.777163
  H       5.742784     22.181046      2.365957
  H       7.987972     21.912058      3.345699
  H       9.404615     25.298228      1.046620
  H       7.135272     25.564187      0.049678
  C      10.297544     23.283878      2.716367
  C      10.448622     22.974129      4.195471
  H      10.932630     24.159814      2.473626
  H      10.692217     22.449932      2.102555
  C      10.683201     24.060877      5.058816
  C      10.814966     23.907585      6.441716
  C      10.720479     22.616223      7.007390
  C      10.468997     21.528339      6.164799
  C      10.330558     21.675748      4.764925
  C       9.976170     20.471952      3.963601
  H      10.403791     20.516747      6.596420
  H      10.773945     25.070089      4.623219
  C      10.681613     20.081582      2.806538
  C      10.223581     19.026296      2.005887
  C       9.063707     18.307886      2.349986
  C       8.394677     18.648036      3.542867
  C       8.846367     19.705032      4.336003
  H      11.601395     20.615192      2.525112
  H      10.778842     18.754407      1.094069
  H       7.483563     18.100057      3.829645
  H       8.284390     19.986376      5.240099
  C       8.502648     17.253879      1.445163
  Cl      6.989312     17.852956      0.612393
  H       8.194615     16.346324      1.998457
  H       9.212926     16.968344      0.646998
  C      10.939527     22.485355      8.501906
  C      12.095964     23.359581      8.938407
  H      11.098074     21.429037      8.795629
  H      10.013495     22.821135      9.028904
  C      12.204225     24.638453      8.346165
  C      11.127339     25.056129      7.369774
  H      11.418280     25.966785      6.807573
  H      10.205292     25.322834      7.940097
  C      13.090673     22.951517      9.841202
  C      14.188274     23.775970     10.126071
  C      14.341556     25.032225      9.498165
  C      13.313780     25.441040      8.615970
  H      13.388357     26.397407      8.080423
  H      14.945487     23.420228     10.839565
  H      13.020118     21.959803     10.315874
  C      15.551219     25.877131      9.676671
  C      16.717847     25.430335     10.334518
  C      17.851750     26.248959     10.399394
  C      15.591514     27.168420      9.109441
  C      16.729436     27.979256      9.112659
  C      17.891481     27.515377      9.783877
  H      18.750133     25.884859     10.923067
  H      16.757639     24.428672     10.785729
  H      14.697585     27.564186      8.616195
  C      19.137793     28.341040      9.855533
  Cl     18.972568     29.745621     11.018912
  H      19.403480     28.797640      8.882688
  H      19.997942     27.747756     10.216534
  C      16.711010     29.319019      8.386136
  C      15.421473     29.594919      7.649415
  H      17.561264     29.334347      7.668016
  H      16.927315     30.128581      9.114898
  C      15.137386     28.970166      6.416391
  C      13.902308     29.146389      5.778624
  C      12.900841     29.967845      6.345073
  C      13.188242     30.588845      7.581479
  C      14.420123     30.402306      8.220445
  H      15.899488     28.325391      5.949925
  C      11.619918     30.243694      5.645691
  C      10.897183     29.252699      4.942535
  C      11.098391     31.556271      5.665902
  C       9.700773     29.550806      4.259957
  C       9.215774     30.879295      4.274147
  C       9.916017     31.863085      4.991533
  H      11.268357     28.213557      4.945237
  H      11.648253     32.350114      6.192797
  H       9.530510     32.895074      5.005502
  C       7.970458     31.225837      3.500144
  H       7.497399     32.140822      3.910683
  H       8.265293     31.490025      2.455134
  C       8.931753     28.494005      3.481797
  H       9.346500     28.453381      2.444926
  H       9.118554     27.485066      3.905643
  H      14.605252     30.881074      9.195092
  H      12.420778     31.215589      8.060213
  H      13.721344     28.669301      4.802993
324
Coordinates from ORCA-job input E -9763.441584166419
  C      -2.149938      9.040048      2.062762
  C      -3.400280      9.018706      2.715572
  C      -3.955311      7.816166      3.166966
  C      -3.275554      6.596680      2.983389
  C      -2.011956      6.617999      2.359418
  C      -1.457753      7.820304      1.906367
  H      -0.466312      7.821804      1.428136
  H      -1.451793      5.677343      2.237720
  H      -3.957683      9.959879      2.837896
  H      -4.938953      7.820100      3.662337
  C      -3.860898      5.310291      3.484154
  Cl     -3.310268      4.943850      5.183139
  H      -3.548480      4.446643      2.867363
  H      -4.965897      5.348410      3.518130
  C      -0.906963     11.788866     -0.253021
  C      -0.703358     12.852716      0.643384
  C      -1.367804     10.527867      0.159812
  C      -0.927287     12.642315      2.019099
  C      -1.601571     10.322271      1.546405
  H      -0.743819     11.965479     -1.329461
  C      -1.365123     11.378001      2.445201
  H      -1.530086     11.198896      3.520155
  C      -1.770970      9.489480     -0.879386
  C      -3.288646      9.406579     -0.929586
  H      -1.352702      8.490241     -0.652999
  H      -1.365778      9.793834     -1.866753
  C      -3.997293      8.252217     -0.551328
  C      -5.388457      8.297339     -0.408135
  C      -6.116960      9.492570     -0.603763
  C      -5.418287     10.643914     -1.054311
  C      -4.025531     10.563310     -1.222957
  H      -3.452627      7.327079     -0.307859
  H      -5.926563      7.401859     -0.061706
  H      -3.484783     11.473889     -1.526590
  C      -7.568907      9.503140     -0.280108
  C      -8.443998      8.546448     -0.838197
  C      -9.803239      8.530433     -0.501672
  C     -10.334389      9.471506      0.401455
  C      -8.102956     10.433349      0.641489
  C      -9.461378     10.417070      0.975044
  H      -8.047868      7.813874     -1.557947
  H     -10.468840      7.777682     -0.953147
  H      -7.434201     11.164338      1.121519
  H      -9.852817     11.145671      1.702483
  C     -11.784134      9.438743      0.783933
  Cl    -12.057931      8.451341      2.293063
  H     -12.407026      8.977908     -0.005571
  H     -12.174440     10.450128      1.004767
  C      -0.749361     13.778980      2.998581
  C       0.221681     14.838120      2.539942
  H      -0.457300     13.389568      3.995525
  H      -1.733646     14.282348      3.155155
  C      -0.319605     14.224940      0.146937
  C       0.428141     15.058246      1.161381
  H      -1.260443     14.759951     -0.122673
  H       0.260618     14.150964     -0.795846
  C       0.904651     15.647001      3.464966
  C       1.755445     16.671106      3.042165
  C       1.289997     16.085468      0.747912
  C       1.956017     16.923102      1.666524
  H       1.417346     16.264035     -0.331624
  H       0.765064     15.464249      4.542555
  H       2.295327     17.272413      3.787627
  C       2.793682     18.056894      1.209278
  C       3.477192     18.028118     -0.025051
  C       4.205371     19.136709     -0.476023
  C       4.292905     20.314169      0.288819
  C       3.620265     20.341057      1.527848
  H       3.451577     17.116105     -0.640104
  H       4.728313     19.084717     -1.444313
  C       2.892287     19.240043      1.978307
  H       3.621606     21.266513      2.125962
  H       2.347991     19.316177      2.929809
  C      -6.073969     11.985018     -1.326912
  C      -5.419467     13.126429     -0.566871
  H      -7.158455     11.943019     -1.099269
  H      -6.010423     12.206966     -2.414308
  C      -4.810482     12.916714      0.686573
  C      -4.142104     13.948591      1.352366
  C      -5.362189     14.425652     -1.107224
  C      -4.704096     15.464720     -0.436505
  C      -4.059112     15.247807      0.803464
  H      -4.807789     11.907565      1.125907
  H      -3.623469     13.716511      2.292588
  H      -5.834170     14.627682     -2.082456
  H      -4.678689     16.467868     -0.889310
  C      -3.273360     16.325655      1.460955
  C      -2.444530     17.143128      0.661885
  C      -1.642545     18.164951      1.189155
  C      -3.326857     16.589895      2.858994
  C      -2.469519     17.571496      3.385212
  C      -1.621872     18.353114      2.586888
  H      -2.414129     16.959679     -0.424144
  H      -2.520378     17.787470      4.465559
  C      -4.463018     16.103325      3.754686
  C      -5.468941     17.241289      3.801211
  H      -4.092028     15.876750      4.774440
  H      -4.935310     15.187121      3.355997
  C      -5.659310     18.044050      4.936899
  C      -6.399273     19.233711      4.845201
  C      -6.951945     19.661921      3.623346
  C      -6.799571     18.833115      2.477641
  C      -6.087962     17.634270      2.601047
  H      -5.195170     17.761079      5.895234
  H      -6.521647     19.871183      5.734692
  H      -5.938149     17.023024      1.698032
  C      -7.548544     21.020914      3.498366
  C      -8.888695     21.237287      3.124189
  C      -9.360692     22.536525      2.881369
  C      -8.511569     23.650684      3.016197
  C      -7.179874     23.436624      3.424491
  C      -6.709772     22.145688      3.667252
  H      -9.563366     20.376387      3.001512
  H      -5.655736     21.987044      3.939104
  H      -6.499272     24.296648      3.521084
  H     -10.408044     22.686776      2.573813
  C      -9.008653     25.040854      2.738494
  Cl     -8.030712     25.888579      1.451551
  H      -8.935975     25.691347      3.632239
  H     -10.057702     25.036979      2.388091
  C      -7.222953     19.284850      1.094747
  C      -6.543662     20.576709      0.669690
  H      -8.321191     19.427973      1.029883
  H      -6.979778     18.472541      0.376125
  C      -5.177504     20.819050      0.927875
  C      -4.593343     22.057640      0.618400
  C      -5.360329     23.078281      0.019422
  C      -7.294711     21.589453      0.049548
  C      -6.715044     22.817647     -0.276568
  H      -4.565529     20.041425      1.412979
  H      -3.523368     22.227867      0.831286
  H      -8.366072     21.422316     -0.144875
  H      -7.326410     23.618331     -0.718190
  C      -4.852861     24.448283     -0.256971
  C      -4.515004     25.324402      0.791745
  C      -4.258227     26.685406      0.552721
  C      -4.843565     24.944358     -1.577071
  C      -4.532752     26.284055     -1.829181
  C      -4.272957     27.173256     -0.772575
  H      -4.529077     24.948178      1.827185
  H      -5.082655     24.263586     -2.408162
  H      -4.530619     26.661338     -2.864563
  C      -4.087400     27.663119      1.695450
  C      -3.237630     28.862749      1.343393
  C      -3.210425     29.323571      0.010931
  C      -4.076397     28.649408     -1.024120
  H      -5.080288     29.140527     -1.014552
  H      -3.675411     28.823709     -2.043637
  H      -3.682490     27.151401      2.592834
  H      -5.106801     28.011682      1.992580
  C      -2.495781     29.552691      2.316353
  C      -2.400959     30.421153     -0.314014
  C      -1.637834     31.098112      0.655635
  C      -1.710910     30.679634      2.013447
  H      -2.536482     29.201180      3.360985
  H      -2.352414     30.765920     -1.360200
  C      -0.694100     32.164208      0.218004
  C       0.385849     31.818593     -0.621577
  C       1.381975     32.751227     -0.929971
  C      -0.793047     33.498192      0.667603
  C       0.207717     34.429610      0.364468
  C       1.323871     34.058941     -0.411634
  H       0.465871     30.783794     -0.986861
  H       2.243598     32.446802     -1.544685
  H      -1.656311     33.803606      1.277944
  H       0.135762     35.456959      0.755100
  C       2.476869     34.998164     -0.591218
  Cl      3.713785     34.743429      0.734105
  H       2.171653     36.059156     -0.525258
  H       3.011712     34.831378     -1.544814
  C      -0.894744     31.336866      3.120507
  C      -0.808052     19.049303      0.292758
  C      -0.708244     19.387525      3.191996
  C      -0.431670     20.561422      2.280330
  H       0.256404     18.882704      3.434402
  H      -1.109149     19.738879      4.165217
  C      -0.516304     20.408520      0.882292
  H      -1.288921     19.149017     -0.702223
  H       0.168454     18.541768      0.106509
  C      -0.247748     21.518984      0.059810
  C      -0.043822     21.806748      2.800566
  C       0.266225     22.907823      1.980139
  C       0.150955     22.766645      0.569547
  H      -0.313940     21.393776     -1.033962
  H       0.025459     21.933670      3.893356
  C       0.772862     24.153456      2.614391
  C       1.921442     24.118108      3.431695
  C       0.135658     25.398862      2.434157
  C       0.639004     26.562851      3.030352
  C       1.787149     26.528577      3.852186
  C       2.420324     25.282317      4.032823
  H       3.325462     25.221988      4.658621
  H       2.448283     23.161183      3.575145
  H      -0.788358     25.455978      1.833824
  H       0.119654     27.514773      2.848819
  C       2.291968     27.758837      4.605931
  C       0.842982     29.644792      3.854335
  C       1.588294     31.501614      2.523314
  C       0.535936     30.834805      3.177494
  H      -1.396922     31.128393      4.087330
  H      -0.892265     32.434610      2.995127
  C       2.129891     29.072591      3.871621
  C       3.191872     29.753620      3.208560
  C       2.878014     30.966546      2.546573
  H       1.415534     32.450072      1.998179
  H       3.677199     31.512343      2.023006
  H       0.040785     29.132573      4.410904
  H       3.345302     27.597982      4.905258
  H       1.715939     27.823192      5.556681
  C       4.624741     29.346440      3.265657
  C       5.100511     28.019661      3.153311
  C       6.472621     27.736291      3.239347
  C       7.428812     28.757398      3.412160
  C       6.971610     30.090814      3.471438
  C       5.596208     30.360666      3.424644
  H       4.398745     27.193154      2.970154
  H       6.804492     26.689587      3.156921
  H       5.267333     31.406004      3.528317
  C       5.064077     21.521990     -0.197294
  C       4.306396     22.826481     -0.006314
  H       5.297272     21.390869     -1.276006
  H       6.045084     21.560026      0.317965
  C       4.890244     24.004795      0.530129
  C       4.123834     25.186966      0.562281
  C       2.768558     25.190068      0.201974
  C       2.953505     22.859396     -0.380793
  C       2.149979     23.999043     -0.222106
  H       2.483540     21.926470     -0.730032
  H       4.589617     26.108314      0.942561
  H       2.169977     26.103512      0.338205
  C       0.643658     23.849209     -0.385294
  H       0.393419     23.542857     -1.422309
  H       0.144455     24.821144     -0.211532
  C       6.243015     23.976455      1.147108
  C       6.487731     23.081099      2.211894
  C       7.760268     22.947470      2.769562
  C       8.846517     23.699684      2.279984
  C       8.586882     24.656168      1.279577
  C       7.305059     24.797966      0.722148
  H       5.658788     22.463847      2.589847
  H       7.916676     22.227225      3.582619
  H       9.412655     25.281059      0.901569
  H       7.132753     25.531001     -0.080984
  C      10.267019     23.398760      2.730249
  C      10.430137     23.053521      4.196632
  H      10.910152     24.271592      2.496073
  H      10.641880     22.574446      2.091042
  C      10.656705     24.119514      5.087619
  C      10.791026     23.929898      6.465069
  C      10.711378     22.621577      6.994505
  C      10.465077     21.554883      6.123607
  C      10.321045     21.740142      4.728663
  C       9.968930     20.560403      3.891169
  H      10.408008     20.531440      6.527560
  H      10.735204     25.141137      4.679577
  C      10.685570     20.199791      2.731219
  C      10.243656     19.155724      1.906836
  C       9.088670     18.419282      2.228754
  C       8.401865     18.737240      3.417556
  C       8.837006     19.783659      4.233532
  H      11.605416     20.743621      2.470006
  H      10.811346     18.903628      0.996981
  H       7.491249     18.178796      3.685067
  H       8.265660     20.040379      5.139312
  C       8.555741     17.365674      1.307121
  Cl      7.017465     17.926449      0.494868
  H       8.281724     16.437139      1.843384
  H       9.269803     17.119976      0.499110
  C      10.938094     22.451880      8.483861
  C      12.088980     23.324174      8.937939
  H      11.108098     21.389385      8.747303
  H      10.011747     22.764074      9.024443
  C      12.183222     24.620044      8.380446
  C      11.094845     25.055782      7.423827
  H      11.371657     25.986154      6.884946
  H      10.173130     25.294771      8.006608
  C      13.095597     22.898314      9.818771
  C      14.192045     23.720684     10.113105
  C      14.332288     24.994778      9.519265
  C      13.289915     25.422151      8.662624
  H      13.346585     26.395947      8.157681
  H      14.959512     23.346972     10.805935
  H      13.040285     21.890981     10.261379
  C      15.544343     25.836247      9.701095
  C      16.690930     25.406630     10.405345
  C      17.828980     26.219698     10.469564
  C      15.610628     27.105539      9.088874
  C      16.752535     27.909515      9.093887
  C      17.894382     27.462791      9.809996
  H      18.710646     25.868932     11.029484
  H      16.711170     24.424770     10.899129
  H      14.737237     27.488335      8.551107
  C      19.143455     28.283908      9.885171
  Cl     18.957860     29.728299     10.995851
  H      19.435778     28.705720      8.904385
  H      19.990922     27.698940     10.287381
  C      16.760482     29.223668      8.321441
  C      15.467689     29.512317      7.595493
  H      17.599710     29.188125      7.590963
  H      17.011762     30.050612      9.018611
  C      15.158056     28.882355      6.371473
  C      13.916253     29.070159      5.749392
  C      12.932748     29.907849      6.323568
  C      13.244778     30.531744      7.552698
  C      14.483134     30.334513      8.175455
  H      15.903351     28.221240      5.900719
  C      11.645989     30.196810      5.639885
  C      10.905511     29.215240      4.942211
  C      11.134262     31.513459      5.673659
  C       9.700433     29.526079      4.278525
  C       9.224400     30.858143      4.307546
  C       9.943861     31.832318      5.019517
  H      11.268025     28.172169      4.934993
  H      11.696939     32.301083      6.196263
  H       9.566439     32.867081      5.045669
  C       7.968558     31.221419      3.557665
  H       7.498820     32.123482      3.999952
  H       8.251012     31.518544      2.518093
  C       8.917504     28.475946      3.505345
  H       9.333438     28.421044      2.469733
  H       9.091256     27.466852      3.934740
  H      14.685354     30.812850      9.146889
  H      12.492476     31.171307      8.038358
  H      13.717174     28.589925      4.778869
324
Coordinates from ORCA-job input E -9763.442187018210
  C      -2.129833      9.032311      2.044476
  C      -3.378677      8.993475      2.699354
  C      -3.919657      7.782316      3.144987
  C      -3.227114      6.571407      2.952831
  C      -1.965302      6.610170      2.326000
  C      -1.424991      7.821068      1.879073
  H      -0.434614      7.835904      1.398822
  H      -1.395376      5.676381      2.197098
  H      -3.946157      9.927731      2.828014
  H      -4.902109      7.773000      3.642648
  C      -3.796841      5.275535      3.447380
  Cl     -3.228673      4.899637      5.138389
  H      -3.481818      4.420001      2.820679
  H      -4.901790      5.303363      3.490808
  C      -0.918874     11.809516     -0.255083
  C      -0.724176     12.869355      0.648195
  C      -1.367566     10.541458      0.149968
  C      -0.945021     12.647748      2.022730
  C      -1.596660     10.324088      1.535396
  H      -0.759069     11.994991     -1.330535
  C      -1.369581     11.376201      2.441041
  H      -1.530326     11.187975      3.515029
  C      -1.762658      9.505487     -0.894814
  C      -3.280099      9.412620     -0.944935
  H      -1.337871      8.508109     -0.672545
  H      -1.359450      9.817305     -1.880652
  C      -3.980454      8.252732     -0.568149
  C      -5.371709      8.287985     -0.422706
  C      -6.108842      9.478523     -0.614068
  C      -5.418799     10.635446     -1.064228
  C      -4.025568     10.564812     -1.234999
  H      -3.429079      7.330884     -0.327233
  H      -5.902797      7.388219     -0.076763
  H      -3.491688     11.479927     -1.537175
  C      -7.559692      9.479202     -0.284703
  C      -8.430990      8.516778     -0.838834
  C      -9.788892      8.492368     -0.496851
  C     -10.322632      9.430722      0.407610
  C      -8.095823     10.405337      0.639943
  C      -9.452850     10.380867      0.978668
  H      -8.033025      7.786039     -1.559421
  H     -10.451724      7.735969     -0.946302
  H      -7.429368     11.138703      1.119417
  H      -9.845920     11.107308      1.707358
  C     -11.770973      9.389916      0.795350
  Cl    -12.033450      8.415054      2.314640
  H     -12.392613      8.917129      0.011954
  H     -12.168445     10.400326      1.007762
  C      -0.779129     13.780113      3.009293
  C       0.180705     14.852049      2.557732
  H      -0.483259     13.387628      4.003873
  H      -1.767987     14.273083      3.169315
  C      -0.352814     14.248362      0.160596
  C       0.386146     15.082859      1.180714
  H      -1.298399     14.775902     -0.106928
  H       0.229199     14.185518     -0.781908
  C       0.855961     15.660649      3.488407
  C       1.698995     16.693701      3.072751
  C       1.239445     16.120442      0.774770
  C       1.899016     16.957029      1.699283
  H       1.367227     16.305130     -0.303654
  H       0.716879     15.469907      4.564654
  H       2.234708     17.292696      3.822544
  C       2.735105     18.097002      1.254316
  C       3.407290     18.088012      0.013953
  C       4.145082     19.197815     -0.419071
  C       4.256704     20.354988      0.372167
  C       3.588856     20.365592      1.614460
  H       3.367368     17.190284     -0.620983
  H       4.661809     19.159860     -1.391293
  C       2.849959     19.265029      2.045426
  H       3.606646     21.278685      2.232385
  H       2.313148     19.328019      3.001649
  C      -6.083366     11.973188     -1.332308
  C      -5.436640     13.115233     -0.566838
  H      -7.167678     11.923347     -1.105684
  H      -6.020046     12.200074     -2.418655
  C      -4.823021     12.902668      0.683775
  C      -4.159419     13.935182      1.353189
  C      -5.389612     14.418100     -1.099883
  C      -4.736176     15.457589     -0.425218
  C      -4.085787     15.237898      0.811197
  H      -4.810503     11.890921      1.116998
  H      -3.636730     13.700146      2.290095
  H      -5.864972     14.622459     -2.072973
  H      -4.720034     16.464028     -0.871851
  C      -3.303034     16.317488      1.468585
  C      -2.487174     17.144428      0.666623
  C      -1.690431     18.171825      1.190458
  C      -3.346977     16.575280      2.868133
  C      -2.495024     17.563372      3.390443
  C      -1.662750     18.357842      2.588110
  H      -2.460467     16.962697     -0.419799
  H      -2.541325     17.776949      4.471458
  C      -4.474557     16.080059      3.770113
  C      -5.480778     17.216836      3.828459
  H      -4.095500     15.849749      4.786028
  H      -4.948037     15.165002      3.370533
  C      -5.660167     18.016922      4.967629
  C      -6.394462     19.210391      4.884114
  C      -6.950447     19.645487      3.666503
  C      -6.812635     18.817540      2.518107
  C      -6.108216     17.613896      2.634033
  H      -5.192141     17.728502      5.922438
  H      -6.505393     19.847412      5.775451
  H      -5.969342     17.002943      1.729143
  C      -7.534518     21.010230      3.545817
  C      -8.874569     21.240847      3.180066
  C      -9.332962     22.545370      2.938144
  C      -8.470136     23.650083      3.065313
  C      -7.137972     23.421439      3.464383
  C      -6.681442     22.125564      3.706626
  H      -9.559779     20.387490      3.063214
  H      -5.627097     21.954850      3.969674
  H      -6.446809     24.273797      3.554819
  H     -10.380680     22.707421      2.637866
  C      -8.954226     25.045768      2.790889
  Cl     -7.975482     25.885200      1.499058
  H      -8.869865     25.694679      3.684738
  H     -10.005241     25.052868      2.446539
  C      -7.238210     19.278684      1.139306
  C      -6.536627     20.558266      0.711820
  H      -8.333802     19.442866      1.082318
  H      -7.014856     18.463613      0.417348
  C      -5.163970     20.775276      0.959636
  C      -4.557686     22.002300      0.642345
  C      -5.310151     23.035050      0.046042
  C      -7.273090     21.583834      0.095640
  C      -6.672305     22.799816     -0.237558
  H      -4.562834     19.986412      1.440370
  H      -3.482303     22.152172      0.847470
  H      -8.348453     21.435518     -0.092137
  H      -7.271207     23.610727     -0.677596
  C      -4.783244     24.395468     -0.244724
  C      -4.470131     25.292960      0.793372
  C      -4.208177     26.648963      0.531865
  C      -4.739095     24.863121     -1.574343
  C      -4.423822     26.197834     -1.847140
  C      -4.193701     27.109751     -0.803214
  H      -4.510992     24.939391      1.836080
  H      -4.958127     24.164883     -2.396415
  H      -4.398258     26.553523     -2.889822
  C      -4.063667     27.650880      1.657209
  C      -3.205735     28.842690      1.297917
  C      -3.156091     29.278856     -0.042209
  C      -4.001829     28.582170     -1.078846
  H      -5.009217     29.066021     -1.092634
  H      -3.586166     28.741211     -2.094907
  H      -3.680437     27.159109      2.574863
  H      -5.089401     28.006083      1.922986
  C      -2.479498     29.550077      2.270239
  C      -2.344290     30.372632     -0.373474
  C      -1.597134     31.066908      0.596382
  C      -1.689531     30.671403      1.959497
  H      -2.537870     29.217733      3.320226
  H      -2.278208     30.698615     -1.424668
  C      -0.649487     32.128333      0.157444
  C       0.444429     31.773865     -0.659368
  C       1.442498     32.705321     -0.965012
  C      -0.762917     33.469648      0.581745
  C       0.239040     34.400000      0.280999
  C       1.371196     34.019972     -0.467152
  H       0.532420     30.734590     -1.009866
  H       2.316563     32.394130     -1.558412
  H      -1.640946     33.782600      1.166617
  H       0.157332     35.432871      0.654652
  C       2.524919     34.959445     -0.638130
  Cl      3.723878     34.738161      0.726966
  H       2.215060     36.020641     -0.605513
  H       3.085747     34.772309     -1.572820
  C      -0.884043     31.343309      3.066094
  C      -0.871068     19.062887      0.287257
  C      -0.760809     19.402745      3.191657
  C      -0.483458     20.573305      2.275419
  H       0.204482     18.906603      3.446678
  H      -1.172525     19.758068      4.159018
  C      -0.571494     20.419335      0.877970
  H      -1.368310     19.168147     -0.699193
  H       0.102561     18.556990      0.081825
  C      -0.298369     21.527583      0.052867
  C      -0.089570     21.818204      2.792348
  C       0.223446     22.916359      1.969707
  C       0.106512     22.774031      0.559871
  H      -0.364596     21.400247     -1.040678
  H      -0.017407     21.946606      3.884788
  C       0.737905     24.160732      2.599472
  C       1.890221     24.121960      3.411099
  C       0.106255     25.408635      2.418129
  C       0.618368     26.572004      3.009515
  C       1.769474     26.534634      3.828305
  C       2.398046     25.285430      4.007279
  H       3.305968     25.221903      4.628753
  H       2.413555     23.162445      3.553245
  H      -0.819881     25.469468      1.820066
  H       0.102399     27.525442      2.827246
  C       2.280887     27.762735      4.583840
  C       0.845525     29.653542      3.818933
  C       1.609615     31.513985      2.502925
  C       0.547691     30.844825      3.140653
  H      -1.394193     31.143995      4.030633
  H      -0.882922     32.439635      2.929426
  C       2.130816     29.078969      3.850290
  C       3.202071     29.760330      3.201823
  C       2.898857     30.976996      2.541329
  H       1.446025     32.465571      1.980129
  H       3.706766     31.522617      2.031003
  H       0.036294     29.142361      4.366079
  H       3.332175     27.594160      4.886260
  H       1.702352     27.830484      5.532834
  C       4.633089     29.348364      3.275929
  C       5.102885     28.020286      3.159172
  C       6.472302     27.729859      3.254028
  C       7.433091     28.744385      3.441187
  C       6.983492     30.079888      3.506681
  C       5.608572     30.357090      3.449496
  H       4.398055     27.198861      2.965077
  H       6.799231     26.682687      3.165886
  H       5.283625     31.403533      3.555236
  C       5.043142     21.562172     -0.085003
  C       4.269874     22.863334      0.060900
  H       5.332143     21.426876     -1.149547
  H       5.997004     21.609706      0.478240
  C       4.844818     24.064541      0.553931
  C       4.072292     25.241888      0.541117
  C       2.718604     25.224903      0.171972
  C       2.918747     22.874881     -0.322106
  C       2.108826     24.016465     -0.213294
  H       2.454883     21.927978     -0.639902
  H       4.533745     26.177655      0.889497
  H       2.114143     26.139104      0.272342
  C       0.604877     23.854095     -0.394466
  H       0.370311     23.539357     -1.432776
  H       0.095928     24.823628     -0.234974
  C       6.200442     24.067416      1.168057
  C       6.436365     23.256419      2.300273
  C       7.712180     23.141559      2.857078
  C       8.808918     23.825013      2.294995
  C       8.558278     24.706059      1.225253
  C       7.273726     24.831489      0.670557
  H       5.595917     22.690018      2.729469
  H       7.864097     22.491864      3.728614
  H       9.392819     25.281472      0.792271
  H       7.106137     25.503391     -0.185219
  C      10.231109     23.520875      2.740202
  C      10.396264     23.150135      4.197298
  H      10.874284     24.396942      2.517347
  H      10.603848     22.707344      2.085420
  C      10.622201     24.197338      5.110657
  C      10.757283     23.976909      6.483316
  C      10.679987     22.656029      6.982426
  C      10.432152     21.609006      6.088635
  C      10.286625     21.826097      4.698842
  C       9.938303     20.666648      3.832150
  H      10.373970     20.576765      6.469407
  H      10.700632     25.227625      4.725030
  C      10.672438     20.322591      2.678305
  C      10.244851     19.288126      1.834201
  C       9.086408     18.546042      2.129336
  C       8.375184     18.854975      3.306203
  C       8.797302     19.890391      4.142500
  H      11.595662     20.870680      2.438193
  H      10.830474     19.044041      0.933585
  H       7.460849     18.292806      3.552247
  H       8.209823     20.136727      5.040890
  C       8.575626     17.496458      1.190524
  Cl      7.019159     18.029980      0.396188
  H       8.328616     16.550896      1.710145
  H       9.292437     17.284474      0.375462
  C      10.912585     22.451128      8.466091
  C      12.065977     23.312030      8.933667
  H      11.084428     21.382765      8.703236
  H       9.988975     22.750217      9.018502
  C      12.157049     24.621658      8.407936
  C      11.062588     25.080800      7.467587
  H      11.335628     26.024746      6.948405
  H      10.143095     25.303924      8.059882
  C      13.079903     22.862511      9.793919
  C      14.180589     23.674756     10.098515
  C      14.317357     24.964030      9.538168
  C      13.265892     25.415595      8.704387
  H      13.313235     26.405331      8.230977
  H      14.956171     23.278342     10.769194
  H      13.028793     21.843150     10.208557
  C      15.534692     25.796509      9.727906
  C      16.658203     25.380128     10.477589
  C      17.801252     26.186174     10.546827
  C      15.630145     27.044930      9.078513
  C      16.775837     27.841739      9.092579
  C      17.894861     27.408516      9.851995
  H      18.663959     25.846845     11.142176
  H      16.655099     24.417526     11.008188
  H      14.779379     27.415267      8.498031
  C      19.147511     28.223143      9.936675
  Cl     18.945133     29.697711     11.004356
  H      19.466614     28.617190      8.952805
  H      19.980792     27.643730     10.374906
  C      16.809852     29.135710      8.286706
  C      15.517212     29.438757      7.565633
  H      17.641720     29.060894      7.550610
  H      17.087053     29.972514      8.961811
  C      15.188358     28.805744      6.348309
  C      13.942181     29.003843      5.737213
  C      12.973090     29.855081      6.316033
  C      13.304486     30.482296      7.538689
  C      14.546777     30.274901      8.150398
  H      15.920509     28.131895      5.874972
  C      11.681259     30.152690      5.644624
  C      10.924941     29.176057      4.956971
  C      11.179645     31.473587      5.681664
  C       9.713740     29.495831      4.306264
  C       9.247202     30.831779      4.339455
  C       9.983787     31.800701      5.041523
  H      11.279107     28.129318      4.947886
  H      11.754659     32.258165      6.195312
  H       9.614764     32.838407      5.071549
  C       7.984726     31.206567      3.605798
  H       7.519658     32.101445      4.067563
  H       8.259014     31.523012      2.569757
  C       8.918326     28.448691      3.542016
  H       9.336243     28.375725      2.508400
  H       9.078957     27.441976      3.982138
  H      14.762400     30.753944      9.118566
  H      12.564272     31.132695      8.028437
  H      13.728730     28.520254      4.771436
324
Coordinates from ORCA-job input E -9763.442801777190
  C      -2.108732      9.020755      2.042378
  C      -3.365745      8.976707      2.681907
  C      -3.909088      7.763865      3.119685
  C      -3.211419      6.555336      2.931338
  C      -1.943070      6.598758      2.318289
  C      -1.400176      7.811776      1.879394
  H      -0.403931      7.828321      1.411768
  H      -1.371633      5.665759      2.191112
  H      -3.932294      9.911184      2.810541
  H      -4.897712      7.751519      3.604886
  C      -3.779676      5.256156      3.419224
  Cl     -3.208243      4.872548      5.107860
  H      -3.463457      4.404550      2.787903
  H      -4.884519      5.281146      3.465334
  C      -0.901379     11.822509     -0.232845
  C      -0.723840     12.879278      0.677757
  C      -1.339450     10.547028      0.160972
  C      -0.961473     12.650372      2.048280
  C      -1.578815     10.319168      1.542686
  H      -0.720518     12.012679     -1.304162
  C      -1.377142     11.371383      2.456402
  H      -1.556122     11.178509      3.526429
  C      -1.728749      9.519419     -0.894542
  C      -3.246739      9.422935     -0.950816
  H      -1.300546      8.522309     -0.678922
  H      -1.325227      9.843149     -1.876217
  C      -3.946115      8.260160     -0.580799
  C      -5.338540      8.290640     -0.445260
  C      -6.078944      9.478684     -0.639711
  C      -5.390087     10.638935     -1.082397
  C      -3.994807     10.573176     -1.243647
  H      -3.392775      7.340145     -0.337527
  H      -5.868932      7.388561     -0.104727
  H      -3.462307     11.491014     -1.539857
  C      -7.531937      9.474360     -0.319310
  C      -8.395401      8.505546     -0.873804
  C      -9.754903      8.474825     -0.538049
  C     -10.298758      9.413632      0.359574
  C      -8.077728     10.400458      0.600371
  C      -9.436056     10.369485      0.933064
  H      -7.990146      7.773205     -1.588677
  H     -10.411789      7.714683     -0.989967
  H      -7.416780     11.135816      1.084077
  H      -9.836843     11.097428      1.655949
  C     -11.748157      9.364598      0.741495
  Cl    -12.013382      8.402463      2.269076
  H     -12.362855      8.878745     -0.039296
  H     -12.154777     10.373481      0.943377
  C      -0.812863     13.779360      3.042518
  C       0.144432     14.859328      2.606968
  H      -0.521924     13.381891      4.036863
  H      -1.805936     14.264332      3.201496
  C      -0.357342     14.263544      0.200857
  C       0.363079     15.098948      1.233459
  H      -1.302862     14.788249     -0.073551
  H       0.236479     14.209129     -0.734849
  C       0.811266     15.663221      3.548754
  C       1.658532     16.698451      3.145985
  C       1.216840     16.142450      0.841902
  C       1.867873     16.974152      1.776654
  H       1.353769     16.327694     -0.235246
  H       0.663392     15.466641      4.622699
  H       2.189357     17.289209      3.904621
  C       2.710804     18.113852      1.343887
  C       3.352149     18.122653      0.088217
  C       4.097603     19.229323     -0.338606
  C       4.250591     20.365636      0.474809
  C       3.607869     20.363898      1.731406
  H       3.284421     17.241500     -0.567036
  H       4.594124     19.200899     -1.321534
  C       2.862038     19.265439      2.155550
  H       3.660323     21.262824      2.370672
  H       2.350938     19.318945      3.124975
  C      -6.057206     11.974776     -1.355276
  C      -5.430222     13.115654     -0.571105
  H      -7.145445     11.920714     -1.149535
  H      -5.973132     12.207695     -2.438864
  C      -4.822299     12.895503      0.681200
  C      -4.161811     13.924580      1.357575
  C      -5.384717     14.423268     -1.094405
  C      -4.735150     15.459983     -0.410312
  C      -4.090940     15.232158      0.825882
  H      -4.799333     11.880368      1.105125
  H      -3.648285     13.688004      2.298412
  H      -5.848371     14.630994     -2.072390
  H      -4.726516     16.472483     -0.846493
  C      -3.301501     16.303588      1.485027
  C      -2.491182     17.131781      0.679506
  C      -1.698805     18.163662      1.198522
  C      -3.339807     16.558015      2.884149
  C      -2.488205     17.548879      3.402653
  C      -1.666463     18.350049      2.595832
  H      -2.474454     16.952851     -0.407854
  H      -2.530062     17.762992      4.483620
  C      -4.468624     16.074762      3.789598
  C      -5.472064     17.212889      3.842147
  H      -4.088699     15.849629      4.806286
  H      -4.946873     15.158977      3.397852
  C      -5.649338     18.007685      4.984465
  C      -6.380396     19.202000      4.906798
  C      -6.937719     19.640888      3.692463
  C      -6.810008     18.814275      2.539302
  C      -6.101437     17.612108      2.648497
  H      -5.182118     17.713456      5.937855
  H      -6.484122     19.839015      5.799134
  H      -5.963966     17.002374      1.742724
  C      -7.521892     21.007075      3.580990
  C      -8.864162     21.235565      3.226284
  C      -9.329803     22.538901      2.994039
  C      -8.471088     23.646621      3.122023
  C      -7.135107     23.420610      3.509643
  C      -6.671378     22.124427      3.740812
  H      -9.548343     20.380760      3.112798
  H      -5.615088     21.955605      3.996952
  H      -6.447219     24.275675      3.599243
  H     -10.380670     22.698618      2.703526
  C      -8.966104     25.040732      2.856628
  Cl     -8.028329     25.879872      1.535075
  H      -8.859785     25.692210      3.746022
  H     -10.026568     25.041533      2.542500
  C      -7.255856     19.283907      1.169642
  C      -6.562677     20.565256      0.737431
  H      -8.352303     19.446150      1.134159
  H      -7.042917     18.474483      0.437915
  C      -5.186254     20.780925      0.963044
  C      -4.584878     22.009998      0.643114
  C      -5.348481     23.049168      0.071574
  C      -7.308464     21.593541      0.138250
  C      -6.713494     22.812131     -0.195416
  H      -4.576667     19.984423      1.420094
  H      -3.509726     22.160512      0.849906
  H      -8.386097     21.446168     -0.037303
  H      -7.324823     23.625401     -0.613268
  C      -4.821121     24.405574     -0.229855
  C      -4.497804     25.305935      0.802205
  C      -4.228234     26.659816      0.537205
  C      -4.789584     24.872592     -1.559870
  C      -4.470218     26.205140     -1.837061
  C      -4.216561     27.118433     -0.798684
  H      -4.541155     24.960239      1.847210
  H      -5.033014     24.179505     -2.379367
  H      -4.445483     26.555417     -2.881679
  C      -4.051084     27.651182      1.667586
  C      -3.207478     28.848902      1.294894
  C      -3.161382     29.280321     -0.046974
  C      -4.001591     28.584179     -1.087203
  H      -5.001224     29.082326     -1.123569
  H      -3.566573     28.724456     -2.098241
  H      -3.638542     27.151545      2.567865
  H      -5.066355     28.005353      1.970840
  C      -2.475163     29.560784      2.260924
  C      -2.346632     30.370092     -0.380730
  C      -1.600202     31.073053      0.583992
  C      -1.679651     30.676807      1.944456
  H      -2.515710     29.220594      3.308964
  H      -2.281445     30.691814     -1.432364
  C      -0.663079     32.136732      0.144426
  C       0.411031     31.791901     -0.701361
  C       1.407355     32.722187     -1.009395
  C      -0.769738     33.475579      0.579549
  C       0.226133     34.407268      0.271324
  C       1.348491     34.030056     -0.494609
  H       0.489629     30.757935     -1.069789
  H       2.271934     32.415820     -1.619035
  H      -1.644045     33.784817      1.171762
  H       0.152497     35.436331      0.656544
  C       2.502498     34.964430     -0.672281
  Cl      3.723339     34.703854      0.661965
  H       2.200573     36.026728     -0.614706
  H       3.040587     34.790548     -1.623056
  C      -0.859036     31.332164      3.051347
  C      -0.885702     19.054290      0.289063
  C      -0.782298     19.411508      3.194725
  C      -0.513149     20.579386      2.270535
  H       0.187002     18.930487      3.456631
  H      -1.205384     19.768636      4.156228
  C      -0.589575     20.414638      0.873806
  H      -1.389509     19.157239     -0.694361
  H       0.089268     18.553038      0.078740
  C      -0.314580     21.517351      0.039563
  C      -0.130794     21.830558      2.780126
  C       0.191113     22.918353      1.949509
  C       0.086648     22.768278      0.540270
  H      -0.370924     21.380202     -1.053438
  H      -0.061208     21.966952      3.871624
  C       0.709630     24.165780      2.569071
  C       1.869892     24.117803      3.368417
  C       0.095993     25.418992      2.374599
  C       0.628263     26.578864      2.956213
  C       1.776886     26.532470      3.779213
  C       2.395232     25.277676      3.957928
  H       3.307234     25.206363      4.572842
  H       2.383855     23.151374      3.503609
  H      -0.820839     25.496053      1.762994
  H       0.126709     27.538184      2.765931
  C       2.292825     27.754839      4.545861
  C       0.875570     29.648348      3.773279
  C       1.647068     31.516369      2.470127
  C       0.580274     30.842552      3.101607
  H      -1.347845     31.101450      4.018724
  H      -0.864047     32.433072      2.946899
  C       2.159600     29.072108      3.810520
  C       3.232508     29.752210      3.164306
  C       2.935501     30.972181      2.504027
  H       1.488923     32.479295      1.964365
  H       3.751815     31.514314      2.003736
  H       0.065640     29.140900      4.322371
  H       3.337930     27.572474      4.861535
  H       1.699689     27.824213      5.485028
  C       4.661764     29.335474      3.254381
  C       5.121360     28.001557      3.157055
  C       6.488420     27.702192      3.265111
  C       7.452745     28.714548      3.437523
  C       7.014004     30.054592      3.487333
  C       5.640662     30.341708      3.420729
  H       4.403844     27.186199      2.984946
  H       6.816354     26.654289      3.186629
  H       5.317245     31.389401      3.520458
  C       5.029202     21.574122      0.016597
  C       4.247644     22.869760      0.123732
  H       5.340462     21.428198     -1.040038
  H       5.977648     21.640772      0.588987
  C       4.822413     24.082490      0.585402
  C       4.046278     25.258352      0.540078
  C       2.695304     25.230321      0.158135
  C       2.900010     22.869610     -0.269534
  C       2.090742     24.016296     -0.209289
  H       2.442055     21.916809     -0.577859
  H       4.502308     26.199482      0.879235
  H       2.095419     26.150898      0.217514
  C       0.588767     23.850526     -0.408589
  H       0.368346     23.538318     -1.450953
  H       0.073694     24.817811     -0.252301
  C       6.192588     24.098971      1.172715
  C       6.424168     23.386056      2.370533
  C       7.706902     23.283670      2.919853
  C       8.813016     23.872845      2.277813
  C       8.572969     24.654918      1.128857
  C       7.283450     24.771116      0.583028
  H       5.571649     22.891904      2.861255
  H       7.855309     22.734960      3.860066
  H       9.418082     25.159799      0.634078
  H       7.119630     25.362145     -0.330930
  C      10.235885     23.579519      2.730521
  C      10.386405     23.215104      4.183992
  H      10.882560     24.452775      2.504457
  H      10.608068     22.757431      2.085733
  C      10.610332     24.248120      5.114089
  C      10.743474     23.999025      6.484092
  C      10.659671     22.668025      6.955101
  C      10.397959     21.640416      6.043630
  C      10.251925     21.887624      4.662308
  C       9.898858     20.753807      3.764164
  H      10.319090     20.601647      6.402338
  H      10.700084     25.284078      4.746658
  C      10.697963     20.354108      2.673745
  C      10.287897     19.313945      1.826929
  C       9.078512     18.631491      2.054212
  C       8.288447     19.013328      3.157099
  C       8.696578     20.049340      3.998954
  H      11.664937     20.848880      2.496386
  H      10.926754     19.019558      0.979204
  H       7.335040     18.495651      3.345395
  H       8.058257     20.349767      4.844253
  C       8.609018     17.555191      1.119624
  Cl      7.027119     18.005645      0.343442
  H       8.419481     16.598302      1.644876
  H       9.338597     17.376576      0.307674
  C      10.919114     22.419472      8.426525
  C      12.071112     23.275520      8.899986
  H      11.110688     21.346297      8.624001
  H      10.002446     22.686554      9.005609
  C      12.142895     24.604008      8.421619
  C      11.044330     25.083820      7.493002
  H      11.316332     26.040028      6.991571
  H      10.125017     25.291483      8.090630
  C      13.100063     22.802473      9.729429
  C      14.196349     23.610184     10.051976
  C      14.312096     24.922322      9.543666
  C      13.243455     25.399178      8.746303
  H      13.259753     26.417507      8.336179
  H      14.994535     23.185089     10.676637
  H      13.059856     21.768892     10.108332
  C      15.515682     25.763976      9.768005
  C      16.582999     25.403921     10.624536
  C      17.714037     26.224525     10.723763
  C      15.653731     26.967337      9.046365
  C      16.781356     27.783993      9.106031
  C      17.846093     27.408453      9.968941
  H      18.531522     25.933769     11.402623
  H      16.541410     24.484271     11.224888
  H      14.859006     27.278824      8.361691
  C      19.080924     28.244058     10.097672
  Cl     18.793685     29.757073     11.092441
  H      19.454374     28.605689      9.121062
  H      19.892957     27.696064     10.609623
  C      16.846539     29.048080      8.253810
  C      15.560759     29.365114      7.522329
  H      17.679361     28.937333      7.522869
  H      17.138483     29.896572      8.907793
  C      15.224461     28.731680      6.307343
  C      13.979840     28.943042      5.693842
  C      13.023962     29.814764      6.264515
  C      13.363442     30.444455      7.484430
  C      14.601386     30.220072      8.100263
  H      15.947561     28.044209      5.839592
  C      11.728276     30.112822      5.595508
  C      10.957101     29.132319      4.930541
  C      11.244192     31.441923      5.605051
  C       9.743918     29.456647      4.280618
  C       9.289610     30.798501      4.292279
  C      10.047297     31.772173      4.965693
  H      11.305394     28.081909      4.933509
  H      11.838146     32.229609      6.091553
  H       9.690243     32.814393      4.979713
  C       8.023366     31.174717      3.566177
  H       7.569006     32.076151      4.025996
  H       8.290538     31.480996      2.525087
  C       8.933555     28.404154      3.544234
  H       9.347816     28.301644      2.511654
  H       9.082691     27.406230      4.006417
  H      14.822291     30.701276      9.066048
  H      12.632335     31.109654      7.967663
  H      13.759376     28.456869      4.731054
324
Coordinates from ORCA-job input E -9763.443700918200
  C      -2.097932      9.018815      2.018957
  C      -3.352418      8.958911      2.661888
  C      -3.881869      7.738190      3.094964
  C      -3.171133      6.538101      2.901551
  C      -1.903606      6.597942      2.288116
  C      -1.375198      7.818499      1.852737
  H      -0.379658      7.848173      1.384104
  H      -1.321403      5.672067      2.157260
  H      -3.931452      9.885870      2.791705
  H      -4.869035      7.713212      3.582666
  C      -3.726280      5.230774      3.382513
  Cl     -3.148405      4.841661      5.067622
  H      -3.403393      4.385988      2.745375
  H      -4.831244      5.245630      3.430078
  C      -0.915666     11.839720     -0.247299
  C      -0.739706     12.892634      0.668512
  C      -1.347838     10.560330      0.141435
  C      -0.972284     12.654955      2.038387
  C      -1.581816     10.324303      1.523129
  H      -0.742760     12.037125     -1.318604
  C      -1.381168     11.372375      2.441013
  H      -1.551804     11.172186      3.511149
  C      -1.732532      9.534359     -0.917468
  C      -3.249754      9.429417     -0.971176
  H      -1.298755      8.538700     -0.706123
  H      -1.331732      9.863204     -1.898636
  C      -3.941605      8.261103     -0.604622
  C      -5.333370      8.283940     -0.462014
  C      -6.080205      9.469764     -0.645912
  C      -5.399067     10.635800     -1.085769
  C      -4.004445     10.577779     -1.253890
  H      -3.382745      7.342604     -0.368408
  H      -5.857394      7.377797     -0.122148
  H      -3.477404     11.500363     -1.545173
  C      -7.530996      9.457299     -0.316614
  C      -8.394707      8.489253     -0.872336
  C      -9.752593      8.453744     -0.530358
  C     -10.294142      9.386515      0.374976
  C      -8.074396     10.376237      0.611546
  C      -9.431108     10.341116      0.949547
  H      -7.991727      7.763400     -1.595050
  H     -10.409686      7.693741     -0.982209
  H      -7.413093     11.111412      1.095072
  H      -9.829567     11.062225      1.680546
  C     -11.742042      9.334205      0.761960
  Cl    -11.996572      8.379593      2.295750
  H     -12.357282      8.842032     -0.014421
  H     -12.151783     10.342647      0.959815
  C      -0.826973     13.778259      3.038614
  C       0.123585     14.865740      2.606676
  H      -0.531752     13.376902      4.030049
  H      -1.822365     14.257310      3.201364
  C      -0.379389     14.281142      0.197994
  C       0.339087     15.114126      1.234298
  H      -1.327538     14.803422     -0.072892
  H       0.213432     14.233853     -0.738713
  C       0.786014     15.668342      3.552243
  C       1.627008     16.710361      3.155001
  C       1.187074     16.164361      0.847629
  C       1.835849     16.993518      1.786898
  H       1.323296     16.356487     -0.228287
  H       0.639022     15.465461      4.625149
  H       2.155408     17.299924      3.916746
  C       2.674988     18.140148      1.363349
  C       3.318490     18.165377      0.108476
  C       4.068539     19.276543     -0.300663
  C       4.224787     20.399202      0.530948
  C       3.580721     20.379989      1.786606
  H       3.250584     17.293605     -0.559126
  H       4.565609     19.262548     -1.283529
  C       2.827659     19.279424      2.191563
  H       3.635783     21.268403      2.440056
  H       2.314889     19.319046      3.161524
  C      -6.075648     11.968557     -1.351841
  C      -5.451708     13.111093     -0.568121
  H      -7.162320     11.906322     -1.140668
  H      -5.998864     12.204856     -2.435260
  C      -4.841267     12.891474      0.683084
  C      -4.184798     13.922404      1.360811
  C      -5.413764     14.420066     -1.088824
  C      -4.768681     15.458491     -0.403278
  C      -4.121575     15.231106      0.831577
  H      -4.811847     11.875062      1.104207
  H      -3.669566     13.685963      2.301079
  H      -5.880394     14.627763     -2.065406
  H      -4.768188     16.472838     -0.835073
  C      -3.333098     16.304746      1.487776
  C      -2.528952     17.136549      0.680073
  C      -1.735902     18.169197      1.197407
  C      -3.364043     16.555046      2.887419
  C      -2.516323     17.550191      3.403486
  C      -1.701290     18.356536      2.594615
  H      -2.511829     16.956141     -0.406919
  H      -2.555173     17.762410      4.484987
  C      -4.483562     16.057176      3.796941
  C      -5.489883     17.192361      3.865302
  H      -4.095632     15.825688      4.809167
  H      -4.960227     15.142580      3.400186
  C      -5.658104     17.981885      5.012528
  C      -6.388066     19.177804      4.945500
  C      -6.951421     19.623891      3.736460
  C      -6.837316     18.800402      2.580092
  C      -6.131696     17.595620      2.679256
  H      -5.186938     17.681112      5.961952
  H      -6.481241     19.812705      5.840457
  H      -6.008808     16.985784      1.771452
  C      -7.522235     20.996015      3.631234
  C      -8.864046     21.242426      3.286670
  C      -9.313208     22.552973      3.059300
  C      -8.437828     23.648610      3.179958
  C      -7.102637     23.404200      3.559775
  C      -6.655272     22.101772      3.785585
  H      -9.560710     20.397117      3.178498
  H      -5.600059     21.918526      4.036278
  H      -6.401294     24.248971      3.642338
  H     -10.363255     22.727386      2.774300
  C      -8.916864     25.051101      2.928120
  Cl     -7.969746     25.893225      1.615281
  H      -8.801950     25.692619      3.823851
  H      -9.977375     25.067900      2.614667
  C      -7.284935     19.281399      1.214909
  C      -6.578035     20.558636      0.792037
  H      -8.379584     19.456074      1.183784
  H      -7.081772     18.474910      0.477332
  C      -5.200461     20.757349      1.021130
  C      -4.582768     21.978880      0.701942
  C      -5.330721     23.026860      0.125691
  C      -7.310764     21.596928      0.193098
  C      -6.699068     22.807445     -0.141924
  H      -4.600979     19.951961      1.477137
  H      -3.506968     22.113545      0.909291
  H      -8.389643     21.461883      0.015350
  H      -7.297426     23.627579     -0.565203
  C      -4.787520     24.376579     -0.190832
  C      -4.478413     25.296119      0.829739
  C      -4.203138     26.645514      0.542811
  C      -4.732154     24.818390     -1.528962
  C      -4.408322     26.146474     -1.826347
  C      -4.174571     27.079690     -0.800968
  H      -4.534565     24.969094      1.880177
  H      -4.960905     24.109238     -2.338933
  H      -4.370041     26.478015     -2.876629
  C      -4.045088     27.663259      1.653293
  C      -3.185414     28.847559      1.270544
  C      -3.128658     29.257817     -0.078322
  C      -3.967057     28.543902     -1.109223
  H      -4.969980     29.035309     -1.148934
  H      -3.535316     28.674272     -2.122747
  H      -3.656125     27.183391      2.574662
  H      -5.065578     28.028982      1.924272
  C      -2.456219     29.571104      2.230773
  C      -2.307187     30.340196     -0.425045
  C      -1.564329     31.052482      0.534192
  C      -1.654999     30.679611      1.900173
  H      -2.514351     29.255652      3.285813
  H      -2.239083     30.653625     -1.479724
  C      -0.612465     32.101321      0.087837
  C       0.476984     31.733229     -0.728048
  C       1.476937     32.656384     -1.046395
  C      -0.727688     33.450853      0.484735
  C       0.272282     34.375102      0.166518
  C       1.407972     33.977772     -0.568375
  H       0.558009     30.691256     -1.072563
  H       2.354822     32.332695     -1.627382
  H      -1.616396     33.777031      1.045891
  H       0.193890     35.413283      0.525655
  C       2.562612     34.909981     -0.754021
  Cl      3.754558     34.698830      0.615813
  H       2.256875     35.972723     -0.738689
  H       3.122731     34.705396     -1.685706
  C      -0.833709     31.356482      2.993040
  C      -0.926783     19.060192      0.284864
  C      -0.817729     19.418812      3.193215
  C      -0.540822     20.582157      2.266650
  H       0.149315     18.937506      3.465262
  H      -1.246047     19.781512      4.150507
  C      -0.623446     20.418435      0.870291
  H      -1.436822     19.166289     -0.695023
  H       0.045003     18.556381      0.066522
  C      -0.341086     21.519252      0.035745
  C      -0.152987     21.831954      2.775514
  C       0.170415     22.918949      1.944931
  C       0.065741     22.767950      0.536441
  H      -0.392949     21.380662     -1.057274
  H      -0.086145     21.969544      3.867088
  C       0.692783     24.165875      2.562864
  C       1.852504     24.118109      3.363475
  C       0.083330     25.421046      2.364562
  C       0.617888     26.581203      2.941611
  C       1.765236     26.534686      3.765073
  C       2.380782     25.278996      3.948094
  H       3.291849     25.207530      4.564294
  H       2.366052     23.151953      3.500496
  H      -0.830440     25.500509      1.750872
  H       0.115179     27.539877      2.750972
  C       2.288347     27.761212      4.518365
  C       0.884511     29.662004      3.734572
  C       1.671552     31.514232      2.418373
  C       0.599312     30.852988      3.052278
  H      -1.327182     31.156152      3.965189
  H      -0.829138     32.454000      2.858441
  C       2.163090     29.073733      3.772626
  C       3.242583     29.744949      3.128066
  C       2.956229     30.964571      2.464200
  H       1.522794     32.476376      1.907399
  H       3.774603     31.494486      1.954366
  H       0.071823     29.169405      4.293069
  H       3.332663     27.576237      4.835348
  H       1.696568     27.843098      5.457622
  C       4.669069     29.324125      3.227558
  C       5.124372     27.989743      3.125906
  C       6.488736     27.685260      3.242496
  C       7.456206     28.692522      3.432604
  C       7.021790     30.033542      3.483639
  C       5.650298     30.325465      3.406334
  H       4.407278     27.177883      2.936316
  H       6.810343     26.636337      3.161071
  H       5.330842     31.374571      3.503023
  C       5.022861     21.606611      0.105361
  C       4.230867     22.899514      0.180585
  H       5.380197     21.461699     -0.937004
  H       5.943494     21.674670      0.720121
  C       4.796699     24.129815      0.606316
  C       4.018470     25.299279      0.521475
  C       2.669127     25.254766      0.133277
  C       2.884648     22.881427     -0.218371
  C       2.071082     24.026762     -0.200140
  H       2.430921     21.917582     -0.496636
  H       4.471889     26.250660      0.835531
  H       2.065210     26.174760      0.156871
  C       0.571791     23.848180     -0.411876
  H       0.363038     23.528618     -1.454429
  H       0.049031     24.813109     -0.267387
  C       6.163820     24.173931      1.198897
  C       6.386660     23.554834      2.449347
  C       7.671772     23.468378      2.997364
  C       8.785426     23.975855      2.299120
  C       8.551511     24.677451      1.099708
  C       7.260831     24.782942      0.558029
  H       5.524546     23.123176      2.980760
  H       7.819515     22.985051      3.971874
  H       9.403101     25.123972      0.561745
  H       7.099965     25.313060     -0.393039
  C      10.209310     23.662786      2.737268
  C      10.373564     23.265351      4.181229
  H      10.860011     24.535494      2.520696
  H      10.569786     22.853283      2.069169
  C      10.598935     24.279140      5.131631
  C      10.737806     24.002103      6.495158
  C      10.666335     22.661171      6.939470
  C      10.408094     21.650661      6.007715
  C      10.254264     21.925891      4.631274
  C       9.914153     20.806609      3.709608
  H      10.343014     20.603796      6.345026
  H      10.679792     25.323376      4.785871
  C      10.713369     20.447374      2.605402
  C      10.314039     19.425666      1.731706
  C       9.115873     18.719521      1.945126
  C       8.323073     19.063279      3.058426
  C       8.721741     20.079954      3.928099
  H      11.665253     20.970966      2.428714
  H      10.957678     19.157594      0.878783
  H       7.378329     18.526990      3.237928
  H       8.078086     20.351963      4.779211
  C       8.657056     17.663036      0.983154
  Cl      7.075257     18.124914      0.207005
  H       8.466831     16.694240      1.485139
  H       9.389547     17.506143      0.169475
  C      10.925186     22.388361      8.407568
  C      12.073817     23.241088      8.898171
  H      11.119139     21.312664      8.587752
  H      10.006667     22.643592      8.989424
  C      12.139164     24.577644      8.442191
  C      11.037596     25.067461      7.523540
  H      11.305910     26.031355      7.038000
  H      10.117927     25.262582      8.125089
  C      13.106429     22.761142      9.719732
  C      14.197803     23.571731     10.056758
  C      14.303408     24.895282      9.575070
  C      13.231720     25.376026      8.784412
  H      13.239062     26.401593      8.392512
  H      14.998993     23.140251     10.673296
  H      13.074193     21.720750     10.080468
  C      15.503964     25.741639      9.805265
  C      16.556728     25.401957     10.687936
  C      17.681581     26.230072     10.796175
  C      15.650324     26.935885      9.069983
  C      16.771121     27.761180      9.140696
  C      17.822314     27.403421     10.026856
  H      18.486920     25.954286     11.495515
  H      16.506426     24.494572     11.306057
  H      14.864891     27.237844      8.370756
  C      19.049205     28.248646     10.167738
  Cl     18.732586     29.774975     11.132668
  H      19.440326     28.597429      9.193296
  H      19.853902     27.713721     10.704561
  C      16.846379     29.012211      8.270376
  C      15.562331     29.327508      7.535983
  H      17.677434     28.882609      7.540326
  H      17.144902     29.868264      8.911095
  C      15.223187     28.688576      6.324624
  C      13.978938     28.900734      5.710909
  C      13.024633     29.775477      6.279201
  C      13.368419     30.412791      7.493912
  C      14.606259     30.189040      8.109332
  H      15.945568     28.000399      5.856807
  C      11.730939     30.078486      5.610024
  C      10.955189     29.100231      4.946839
  C      11.249060     31.407736      5.622214
  C       9.744032     29.426616      4.295582
  C       9.294764     30.769269      4.306676
  C      10.053514     31.740240      4.983013
  H      11.293913     28.048295      4.958398
  H      11.841739     32.193751      6.113090
  H       9.700041     32.783744      4.995903
  C       8.032262     31.151667      3.577582
  H       7.575859     32.049599      4.042392
  H       8.304550     31.466977      2.540672
  C       8.935184     28.375496      3.553609
  H       9.358805     28.266244      2.525534
  H       9.075053     27.378357      4.020996
  H      14.830931     30.677734      9.070521
  H      12.639185     31.081153      7.975773
  H      13.755834     28.407840      4.752087
