324
Coordinates from ORCA-job input
  C          -2.09807875321210      9.01897266171999      2.00867937399915
  C          -3.35069426148722      8.94994145159947      2.65421883470055
  C          -3.87096016015370      7.72474807224679      3.08612685908357
  C          -3.15293352266292      6.52955730611657      2.88902850675620
  C          -1.88659109459548      6.59891491341858      2.27422245152097
  C          -1.36727704977007      7.82372019194273      1.84028003465382
  H          -0.37270222671294      7.86140265719483      1.37009160285726
  H          -1.29836595977007      5.67723857089657      2.14043948630720
  H          -3.93700554441276      9.87236818508530      2.78499534891310
  H          -4.85779613596521      7.69188035868709      3.57392126459288
  C          -3.69859329784212      5.21804254075345      3.36940238246411
  Cl         -3.11405144837615      4.82950624359215      5.05225211121054
  H          -3.37243993750376      4.37624100758983      2.72997406277803
  H          -4.80344737102974      5.22638638854266      3.41972479509355
  C          -0.92633488890565     11.84697996795608     -0.25422065650655
  C          -0.75006766541294     12.89838168173219      0.66365679574842
  C          -1.35713697620008     10.56631344517392      0.13287482237401
  C          -0.97968491659392     12.65696167113689      2.03328559303608
  C          -1.58866685910566     10.32746941375813      1.51457663679706
  H          -0.75855754918533     12.04743255345342     -1.32571459826128
  C          -1.38635343893876     11.37336815260488      2.43390492680901
  H          -1.55360115207512     11.17051446419389      3.50414522394668
  C          -1.73658764544496      9.53827052274127     -0.92617062210401
  C          -3.25323215016381      9.42808515563692     -0.98054861003176
  H          -1.30018839811484      8.54395148838455     -0.71377944969782
  H          -1.33572118184395      9.86745290114515     -1.90719680681228
  C          -3.94126134379107      8.25843956959748     -0.61086756438260
  C          -5.33290293967311      8.27746814353317     -0.46658679519486
  C          -6.08325109466865      9.46076202114317     -0.65220203539200
  C          -5.40607336683787     10.62685835027528     -1.09827622308575
  C          -4.01153676571794     10.57288409602863     -1.26689615719050
  H          -3.37979076643001      7.34166474313142     -0.37421686389802
  H          -5.85375970221565      7.37082402776410     -0.12323588342639
  H          -3.48784545335457     11.49544629271196     -1.56431784084988
  C          -7.53355695438928      9.44489593364909     -0.32111420346139
  C          -8.39571854997180      8.47268803379330     -0.87223104184742
  C          -9.75302089650761      8.43504260020167     -0.52798597646496
  C         -10.29562646592838      9.37032193856308      0.37426924040696
  C          -8.07784474065242     10.36540226565928      0.60483569968861
  C          -9.43404405027542     10.32858595503462      0.94449627967456
  H          -7.99174532875900      7.74435569316358     -1.59184748170914
  H         -10.40912696288159      7.67253947607869     -0.97696208039717
  H          -7.41770946456422     11.10402691338386      1.08478606537279
  H          -9.83320341302687     11.05150768656504      1.67332081525721
  C         -11.74282988970137      9.31632231469713      0.76393747923204
  Cl        -11.99121602570995      8.37173167219891      2.30495746948640
  H         -12.35762558961719      8.81695618479000     -0.00815274970736
  H         -12.15532856168771     10.32488810248296      0.95524873203649
  C          -0.83260552530196     13.77737503259771      3.03604072370043
  C           0.11767733578863     14.86614360990375      2.60536443624437
  H          -0.53647971548118     13.37376577098797      4.02616167339028
  H          -1.82833294121234     14.25558545635083      3.19944378545828
  C          -0.39112766545575     14.28868823912212      0.19641186848728
  C           0.32985119555863     15.11934934842775      1.23350968663417
  H          -1.34034885953075     14.81026730419093     -0.07062204685651
  H           0.19918087236264     14.24432066950765     -0.74193066246554
  C           0.78213500166833     15.66533577051586      3.55207146149762
  C           1.62085708772094     16.70995717940079      3.15731749143987
  C           1.17492591908324     16.17299508980814      0.84873413573685
  C           1.82627582186850     16.99933173946778      1.78971916346361
  H           1.30778882035956     16.36983892230240     -0.22661313946982
  H           0.63822300702944     15.45788731413423      4.62449346719214
  H           2.15126169042849     17.29610660832023      3.92073168259738
  C           2.66308786149582     18.15074059919147      1.37130413342189
  C           3.29664928282465     18.19179131714364      0.11139951677878
  C           4.04974452440239     19.30547519199224     -0.28730593491174
  C           4.22031340708739     20.41425825584349      0.56006494578175
  C           3.58647002132534     20.37893499480275      1.82059320742617
  H           3.21782922488117     17.33099789205427     -0.56900297302686
  H           4.53880448972531     19.30394382136665     -1.27415903873758
  C           2.82888580035986     19.27714295328830      2.21445783228788
  H           3.65983898545469     21.25291055031410      2.49123449399999
  H           2.32181148249588     19.30607471073536      3.18838306679806
  C          -6.08560109346447     11.95810512725630     -1.36257784872246
  C          -5.45915355044803     13.10192317463467     -0.58314091858534
  H          -7.17109613375628     11.89409619100926     -1.14601021039108
  H          -6.01452668068631     12.19340703444537     -2.44660013984438
  C          -4.84254563220602     12.88446647060522      0.66549103137451
  C          -4.18839389798428     13.91809423463618      1.34179532415707
  C          -5.43083076661261     14.41120926149728     -1.10268711951356
  C          -4.78792135372622     15.45195903899407     -0.41933985288381
  C          -4.13148195426562     15.22636020028250      0.81158687034864
  H          -4.81296381003799     11.86888728050481      1.08897079208533
  H          -3.66427969145696     13.68203814672577      2.27765768506196
  H          -5.90860409338628     14.61872794101046     -2.07390753203609
  H          -4.78942967074509     16.46502356813890     -0.85251990353527
  C          -3.34553463324825     16.30346971281922      1.46588700758665
  C          -2.54460008918109     17.13763986391183      0.65744137362656
  C          -1.75046644281716     18.16947681148259      1.17486178144933
  C          -3.37421589855193     16.55235127864373      2.86593448968346
  C          -2.52873774847892     17.54929737073905      3.38164481129557
  C          -1.71495143275595     18.35634021281553      2.57238209303324
  H          -2.52932604812542     16.95916044311236     -0.42972693274191
  H          -2.56511028691351     17.75920785978546      4.46368959288833
  C          -4.48783753742870     16.04293723904477      3.77699275302250
  C          -5.49419163972956     17.17775565782127      3.86096943901999
  H          -4.09452841240201     15.80258969905297      4.78500946486842
  H          -4.96507124765528     15.13143071632896      3.37339083699077
  C          -5.65322601070365     17.96490602003264      5.01162976309431
  C          -6.38061987019471     19.16383891980318      4.95214781008425
  C          -6.94939559525734     19.61541141208852      3.74718628186242
  C          -6.84162999101352     18.79544125149069      2.58872205554942
  C          -6.14111704033028     17.58755315402943      2.68064308679165
  H          -5.17461741206286     17.66164178926648      5.95648666081336
  H          -6.46846149515253     19.79552589187222      5.84979247016910
  H          -6.02267755541519     16.98210330028006      1.76920375121716
  C          -7.51670960893756     20.98936650324727      3.64741057362624
  C          -8.86041353431965     21.24207148314486      3.31207150888947
  C          -9.30484466301881     22.55495656040938      3.08892426511320
  C          -8.42329484165215     23.64600165569156      3.20464952397792
  C          -7.08626083165399     23.39502912770860      3.57366991293245
  C          -6.64363776612322     22.09096151893166      3.79648782481121
  H          -9.56130094750931     20.40005520129627      3.20661453069396
  H          -5.58694093289967     21.90266428476335      4.03684773087542
  H          -6.38075774153983     24.23641079804355      3.65429468888573
  H         -10.35607190472201     22.73471802151551      2.81196009109446
  C          -8.89572520671027     25.05095232245758      2.95665417566990
  Cl         -7.94323079905439     25.89004086244807      1.64559880754479
  H          -8.77705369853540     25.69022219173265      3.85354384715743
  H          -9.95596617279275     25.07429705219018      2.64281739185630
  C          -7.29163369972868     19.27848353383710      1.22556951383950
  C          -6.57701919788936     20.55091036635861      0.79919895316529
  H          -8.38524745152156     19.46073952968737      1.19774938516949
  H          -7.09690794560181     18.47009322628679      0.48795286996063
  C          -5.19587908880764     20.73869098922614      1.01940154286936
  C          -4.57072852351464     21.95628803877829      0.69788048731352
  C          -5.31469112988256     23.00887393084972      0.12617407875171
  C          -7.30596344876579     21.59594915947762      0.20714609946612
  C          -6.68677917909996     22.80154109224669     -0.13092113341179
  H          -4.60025740270821     19.92952664290346      1.47380662460857
  H          -3.49035896842817     22.08132006498089      0.89009497096782
  H          -8.38752298630656     21.47095990338147      0.03958572971991
  H          -7.27919557800242     23.62614299814466     -0.55401869350671
  C          -4.76781490160931     24.35782827567870     -0.18757990052782
  C          -4.45532577228941     25.27523325815781      0.83354793210517
  C          -4.17907214935308     26.62411105191064      0.54640411679605
  C          -4.71304829060791     24.79925921149801     -1.52569766594203
  C          -4.38718364135355     26.12647594137470     -1.82314224496684
  C          -4.15368589422906     27.05832429816888     -0.79724665695484
  H          -4.50769429061587     24.94658715470794      1.88356804656821
  H          -4.94110188042312     24.08944380282873     -2.33533119264183
  H          -4.35189757333408     26.45943469271783     -2.87303124352115
  C          -4.02813376593612     27.64506313418325      1.65464457948310
  C          -3.16445414956470     28.82684576518703      1.27315138138398
  C          -3.10914942145049     29.23696502529459     -0.07549003149311
  C          -3.95144202179713     28.52353821002718     -1.10350640915346
  H          -4.95580771131372     29.01258434013886     -1.13622610160525
  H          -3.52607003241206     28.65745924663867     -2.11904185500658
  H          -3.64559483489754     27.16818797233790      2.58026815229489
  H          -5.05107899925838     28.01112896513099      1.91610343017186
  C          -2.43520558291562     29.55018865983227      2.23278120763480
  C          -2.29284060201726     30.32204159026857     -0.42393668304222
  C          -1.54667033800404     31.03285005187302      0.53341599638372
  C          -1.63626557004227     30.66010024263502      1.90097573012375
  H          -2.49677442830478     29.23853754740640      3.28888224886924
  H          -2.23009190595702     30.63631368826542     -1.47858921288259
  C          -0.59386628431100     32.08221541684846      0.08406167136617
  C           0.50377241019841     31.71108647254882     -0.72007030064787
  C           1.50665386131104     32.63370237979836     -1.03340315160062
  C          -0.71144577553688     33.43256925272269      0.47655856109479
  C           0.29274411005079     34.35562670023613      0.16506997307948
  C           1.43429002885921     33.95675435561218     -0.55918959864099
  H           0.58903277688340     30.66738228583524     -1.05797969927424
  H           2.38924277875272     32.30781218190035     -1.60590458609116
  H          -1.60196103201467     33.76009813476438      1.03406254066395
  H           0.21145885804566     35.39477341790214      0.52088543345632
  C           2.59386402550581     34.88711858538605     -0.73110435481793
  Cl          3.77134376150089     34.67653717510630      0.65321818113546
  H           2.28976915628855     35.95044444897027     -0.71877423049941
  H           3.16538560391208     34.68203879873293     -1.65566255540329
  C          -0.82131262403667     31.34484380668298      2.99290087050139
  C          -0.94037465957119     19.05949006665151      0.26255984720412
  C          -0.82881456716301     19.41623530310162      3.17125314757708
  C          -0.55034915135218     20.57842476610824      2.24502430792563
  H           0.13777359821546     18.93325538729724      3.44369639256535
  H          -1.25615090824371     19.77982428234436      4.12872555267460
  C          -0.63514147896137     20.41652977231426      0.84861133172140
  H          -1.44940950967716     19.16586998361084     -0.71774064490515
  H           0.03072558681098     18.55414735230398      0.04500233516996
  C          -0.34957467792003     21.51692983965866      0.01531426159891
  C          -0.15738872592353     21.82582755344514      2.75481974392663
  C           0.16580024485623     22.91338935599787      1.92514773858589
  C           0.05969598088104     22.76388085956470      0.51710066119363
  H          -0.40148826695364     21.37930392632157     -1.07777045126595
  H          -0.08975619226152     21.96234539179601      3.84648051246911
  C           0.69839688738733     24.15552254219573      2.54284586553849
  C           1.86598896240002     24.10433852776661      3.33202705652830
  C           0.08360688462225     25.41021722510050      2.36057726535918
  C           0.62035299503326     26.56790616564099      2.94084747719175
  C           1.77801718731941     26.51864715034418      3.74943563527040
  C           2.39738337506772     25.26267480516027      3.91876970510839
  H           3.31447438029084     25.18926414291238      4.52550893668854
  H           2.38216718734214     23.13828052262080      3.45889321297058
  H          -0.84130676098306     25.48849759953221      1.76308847833597
  H           0.11307212334050     27.52655185207874      2.76198396987126
  C           2.30558150649742     27.74142181586525      4.50493938331147
  C           0.89562646449774     29.64559815446249      3.73451354954925
  C           1.68055057137693     31.50395276708011      2.42686031135252
  C           0.60987996211921     30.83994954804197      3.05739342984547
  H          -1.32002361580254     31.15220716281568      3.96441332359033
  H          -0.81716343895366     32.44065015029385      2.84850695947417
  C           2.17527125590295     29.05897443446805      3.76922823758740
  C           3.25397338075959     29.73539902398555      3.12889313912950
  C           2.96565853777464     30.95749964527829      2.47189319460998
  H           1.52959008313940     32.46448428614934      1.91461157033585
  H           3.78184318929948     31.49386018710415      1.96525465881742
  H           0.08131769164652     29.14478910596194      4.28355624996420
  H           3.35245659068612     27.55631916370236      4.81212156103138
  H           1.72206032543093     27.81786704442190      5.45003583380455
  C           4.68064527122402     29.31425196831607      3.22149890056648
  C           5.13395756224008     27.98037890533593      3.11260224189469
  C           6.49748193269467     27.67324580708773      3.22345311484645
  C           7.46799515199792     28.67813022376872      3.41908889790580
  C           7.03648305838870     30.02014543826548      3.47254246409688
  C           5.66470707643220     30.31374934848009      3.40050666446088
  H           4.41665473497781     27.17014292658873      2.91674387915684
  H           6.81353399342024     26.62251602600658      3.13836006331968
  H           5.34847433005508     31.36414856339095      3.49272807892208
  C           5.02941390807743     21.62075419282750      0.15078404972219
  C           4.23107936664088     22.91329187810718      0.20726113448663
  H           5.41348521958552     21.47504140236574     -0.88219305741375
  H           5.93165825687194     21.69145464268915      0.79104317822234
  C           4.78842764085323     24.15305198071417      0.61852997917618
  C           4.00784711869349     25.31801339936049      0.51389416481138
  C           2.66239233361850     25.26277155263272      0.11485468344623
  C           2.88748620137155     22.88396102107768     -0.19895306206609
  C           2.07075716244637     24.02640487342781     -0.20355702597195
  H           2.43697513508337     21.91349309957235     -0.45799798738240
  H           4.45741079610189     26.27620352851416      0.81545062553617
  H           2.05370714239506     26.17986144023262      0.12375572721004
  C           0.57484641388477     23.83999549588201     -0.43060949172770
  H           0.37784607009930     23.51320206882117     -1.47319976744199
  H           0.04802180001331     24.80431786036775     -0.29843316140996
  C           6.14897682545310     24.21301230859824      1.22173934653725
  C           6.36766196173588     23.61224345547518      2.48066381166830
  C           7.65082572638596     23.53286299845541      3.03205142137006
  C           8.76565987976888     24.03262137940206      2.32999852669176
  C           8.53480235134425     24.71840308244121      1.12182498150888
  C           7.24610897855295     24.81398392628845      0.57535906565661
  H           5.50544265082716     23.18015027237308      3.01127457387369
  H           7.79949487288398     23.04145398458122      4.00181066942893
  H           9.38755450779437     25.15776509571187      0.57950926753668
  H           7.08694609632721     25.33029982349949     -0.38349803745791
  C          10.18801241584835     23.72499091415696      2.77545419044562
  C          10.34345707029827     23.32158631357125      4.21931670818182
  H          10.83541589928434     24.60252475256123      2.56798536430498
  H          10.55821690613694     22.92126751113811      2.10515918327074
  C          10.56918174784138     24.33409463664512      5.17045829258263
  C          10.70344626811645     24.05701302700988      6.53337668175378
  C          10.62793220360989     22.71576550200452      6.97659415897827
  C          10.36812493367376     21.70583747172907      6.04420264433555
  C          10.21994932916322     21.98174533201578      4.66737560334713
  C           9.87466620411569     20.86461222285314      3.74471410972050
  H          10.30283416127365     20.65900381390635      6.38150759855488
  H          10.65407315454788     25.37828117810981      4.82497042222503
  C          10.67856997751388     20.49816802978473      2.64693444961136
  C          10.27175859702725     19.48730401269115      1.76373391337594
  C           9.05989870820648     18.80033885983957      1.95993295409770
  C           8.26200731865305     19.15002024472999      3.06785489546508
  C           8.66860503543970     20.15505163275357      3.94748758691341
  H          11.63465692692371     21.01600142146180      2.47574653555887
  H          10.92051682044942     19.21242541795805      0.91684021813240
  H           7.30473963394482     18.63162126800899      3.23231914819296
  H           8.02036139955547     20.43254574586249      4.79337571390992
  C           8.60004775502335     17.74754435917569      0.99367112951715
  Cl          7.01665495923531     18.20649779208556      0.21633303573517
  H           8.41153366294037     16.77675186043142      1.49216668857131
  H           9.33207895547080     17.59321056681885      0.17905335287434
  C          10.88125895890992     22.44207670195780      8.44483530150548
  C          12.03390548634055     23.28829055172773      8.93637365364913
  H          11.06794142429883     21.36528765160573      8.62593379379930
  H           9.96329650748053     22.70363146301298      9.02500453563893
  C          12.10791346043290     24.62511267088366      8.47984793901031
  C          11.00757452006900     25.12149764099240      7.56155029586385
  H          11.27956062958982     26.08504836330318      7.07412916686863
  H          10.08850455473465     25.32027488772302      8.16298223465048
  C          13.06227137944118     22.80085076839356      9.75848351710658
  C          14.16150719913093     23.60168371653058     10.09219599715358
  C          14.27717329361795     24.92343975099410      9.60941044238773
  C          13.20912129355885     25.41374688886850      8.81871060630482
  H          13.22733529240171     26.43878610574179      8.42455345515305
  H          14.95962702111301     23.16500866977798     10.70974793727091
  H          13.02249551258604     21.76052934625541     10.11881900276637
  C          15.49239390156765     25.75180368312310      9.81999188627602
  C          16.53727453762012     25.41695696996961     10.71320448483051
  C          17.67543038537886     26.22944238077628     10.80229114148968
  C          15.65887861773947     26.92408281048193      9.05558688980490
  C          16.79294768419084     27.73248660901015      9.10684412046873
  C          17.83678875587718     27.38049053096225     10.00352668145011
  H          18.47481713257400     25.95889175736598     11.51046820732977
  H          16.47001135980735     24.52640310221237     11.35423875582910
  H          14.87577617116756     27.22361881727290      8.35224896144809
  C          19.07732243097943     28.20866339756271     10.12472368395849
  Cl         18.78118270275842     29.77028488780094     11.03817110687823
  H          19.47992904444896     28.51915563103113      9.14186533747972
  H          19.86961472652336     27.67753414808313     10.68337951114744
  C          16.88795194419463     28.95643050462626      8.20138112055998
  C          15.59878741460978     29.27965326167160      7.48008181799122
  H          17.70309739620531     28.78378108639873      7.46255999131124
  H          17.21689509922865     29.82320664204992      8.81169930533830
  C          15.24138066409387     28.63877950338362      6.27570373392182
  C          13.99303646706377     28.85864251134962      5.67481900363193
  C          13.05032989898843     29.74090394437795      6.25013671881615
  C          13.41021595364721     30.37774968651193      7.46048703527562
  C          14.65416416562356     30.14881407955262      8.06200078834575
  H          15.95398285769539     27.94528955450013      5.80088802901483
  C          11.75460055494735     30.05073822710312      5.58895796976092
  C          10.97297308825105     29.07609701979966      4.92758920704989
  C          11.27670599010657     31.38172039120835      5.60590227963164
  C           9.76042636919245     29.40743575453387      4.28151653316627
  C           9.31435497769493     30.75221172558276      4.29784153592494
  C          10.07831923738038     31.71919003466977      4.97426728961882
  H          11.30888442251848     28.02197886229539      4.93572287331771
  H          11.87337412733029     32.16523026840679      6.09585921117694
  H           9.72853508633667     32.76387202515528      4.99087259717545
  C           8.04993466461689     31.13721038426927      3.57189101844558
  H           7.59505678206754     32.03400618914810      4.04039378805558
  H           8.32105761128672     31.45665604992287      2.53610943560880
  C           8.94690796901391     28.35877856717118      3.53878065055737
  H           9.36941159813102     28.25025651679628      2.51020656446806
  H           9.08529150557453     27.36005365580529      4.00436853227841
  H          14.89274505601015     30.63867600550853      9.01930097263249
  H          12.69132444961352     31.05313561124244      7.94814013298180
  H          13.75801694709163     28.36628611181994      4.71853029545621
